%BLOCK LATTICE_CART
ang    # angstrom units
  12.454860000000    0.000000000000     0.000000000000   
  0.588540726643     12.723004916496    0.000000000000   
  0.193953655047    -0.561581437379     22.250299121625  
%ENDBLOCK LATTICE_CART

%BLOCK POSITIONS_FRAC
Cu     0.048155350000     0.199194520000     0.222402810000   
Cu     0.452261625000     0.222253220000     0.221501680000   
Cu     0.326392920000     0.366272180000     0.474508150000   
Cu     0.423836750000     0.362253875000     0.479263725000   
H      0.152099650000     0.154032735000     0.249218650000   
H      0.296808930000     0.253788680000     0.175295340000   
H      0.373997330000     0.278297500000     0.154254915000   
H      0.074911235000     0.129523920000     0.270259050000   
H      0.003014495000     0.188457900000     0.155948350000   
H      0.445900300000     0.219365135000     0.268565750000   
H      0.281769780000     0.148665460000     0.191293225000   
H      0.167137085000     0.259145450000     0.233227165000   
H      0.385843900000     0.369126800000     0.355840950000   
H      0.475901365000     0.253159285000     0.423047250000   
H      0.062220395000     0.225590630000     0.449257600000   
H      0.105767190000     0.204505490000     0.417937725000   
H      0.128655670000     0.121046065000     0.441875430000   
H      0.141507925000     0.175467940000     0.467246530000   
H      0.082891760000     0.137501570000     0.472651100000   
H      0.056729435000     0.135763900000     0.368116615000   
H      0.111797870000     0.142526565000     0.328495620000   
H      0.114553215000     0.211195750000     0.340650400000   
H      0.122883560000     0.235554440000     0.287220100000   
H      0.177121460000     0.192085150000     0.299456050000   
H      0.124957800000     0.165836515000     0.276620030000   
H      0.310206800000     0.345421165000     0.324496300000   
H      0.321152700000     0.277299670000     0.312071550000   
H      0.313536850000     0.303860500000     0.258957600000   
H      0.254073085000     0.323542350000     0.280698700000   
H      0.302067370000     0.371782150000     0.271219400000   
H      0.471394900000     0.349748100000     0.135793225000   
H      0.410988000000     0.174185110000     0.136961580000   
H      0.303713975000     0.167103100000     0.062725390000   
H      0.280049300000     0.123142615000     0.134779900000   
H      0.264034600000     0.107765145000     0.096142790000   
H      0.287111850000     0.056461830000     0.120640160000   
H      0.360520750000     0.081433265000     0.085784575000   
H      0.376125200000     0.092457995000     0.124540895000   
H      0.286272500000     0.242998240000     0.034923675000   
H      0.309582980000     0.341247530000     0.069437035000   
H      0.255085200000     0.299938050000     0.079374835000   
H      0.256219050000     0.331229000000     0.043400345000   
H      0.385457000000     0.415848800000     0.057337975000   
H      0.379422700000     0.435025900000     0.096523500000   
H      0.419288200000     0.472285650000     0.071389770000   
H      0.476315250000     0.416283130000     0.103633330000   
H      0.487405800000     0.398299900000     0.065774785000   
H      0.219387040000     0.294106275000     0.023873865000   
H      0.204782965000     0.331956550000     0.054670575000   
H      0.137720140000     0.278044600000     0.018211485000   
H      0.120440075000     0.303590180000     0.051537990000   
H      0.195862725000     0.420328320000     0.053745985000   
H      0.172107935000     0.454446150000     0.025049625000   
H      0.110569375000     0.388086765000     0.062992335000   
H      0.095394855000     0.435372100000     0.039301930000   
H      0.432826250000     0.481244175000     0.173871265000   
H      0.439868630000     0.497830870000     0.050819315000   
H      0.407668800000     0.215259580000     0.105891800000   
H      0.443737030000     0.175106870000     0.059825020000   
H      0.036692140000     0.281324100000     0.109274840000   
H      0.003279685000     0.383701450000     0.192797690000   
H      0.005891440000     0.085531405000     0.007255705000   
H      0.403403135000     0.052625985000     0.198257385000   
H      0.059002710000     0.283934475000     0.397291350000   
H      0.221488060000     0.332289575000     0.301136880000   
H      0.316276900000     0.330478430000     0.298080900000   
H      0.476269350000     0.273101050000     0.372832550000   
H      0.438343500000     0.349113435000     0.353270770000   
H      0.428305750000     0.302249100000     0.322982650000   
H      0.483631970000     0.345427700000     0.321465820000   
H      0.141140730000     0.284965950000     0.272514450000   
H      0.201016740000     0.201775270000     0.306811450000   
H      0.139956070000     0.189172985000     0.286454765000   
H      0.199132235000     0.208483620000     0.266654750000   
H      0.405783600000     0.278373000000     0.356692730000   
H      0.456602900000     0.294119600000     0.314591850000   
H      0.404963700000     0.337283100000     0.300310950000   
H      0.397277350000     0.266367000000     0.299617020000   
H      0.279842975000     0.221139580000     0.415366750000   
H      0.263499380000     0.239593685000     0.467830120000   
H      0.202298030000     0.215536670000     0.452506350000   
H      0.210164450000     0.286159500000     0.458306750000   
H      0.144232660000     0.266974180000     0.420250900000   
C      0.375183880000     0.256261900000     0.195818915000   
C      0.073724685000     0.151559515000     0.228695050000   
C      0.320064600000     0.246723860000     0.195385700000   
C      0.128843965000     0.161097550000     0.229128270000   
C      0.294532650000     0.229528325000     0.221073390000   
C      0.154375910000     0.178293100000     0.203440550000   
C      0.324616900000     0.221299260000     0.247081815000   
C      0.124291660000     0.186522170000     0.177432150000   
C      0.379813700000     0.230263850000     0.246861815000   
C      0.069094905000     0.177557550000     0.177652150000   
C      0.235723585000     0.223170025000     0.220868530000   
C      0.213185010000     0.184651390000     0.203645425000   
C      0.465122650000     0.262728650000     0.374984770000   
C      0.435104950000     0.310607650000     0.377665075000   
C      0.409026350000     0.332170300000     0.353236525000   
C      0.411660580000     0.306440700000     0.325426370000   
C      0.445686500000     0.260607100000     0.321137935000   
C      0.433373650000     0.340798525000     0.405455550000   
C      0.443552730000     0.232029185000     0.291929780000   
C      0.485182550000     0.237501935000     0.400721300000   
C      0.016102075000     0.190627530000     0.398022550000   
C      0.030619025000     0.170868700000     0.369635400000   
C      0.016474545000     0.198920565000     0.343628650000   
C      0.475629480000     0.240051880000     0.346031150000   
C      0.077609000000     0.191009565000     0.435506730000   
C      0.109626470000     0.153936790000     0.455607050000   
C      0.101406635000     0.183816400000     0.322463630000   
C      0.133470950000     0.195144015000     0.294537850000   
C      0.327541400000     0.318885685000     0.306317750000   
C      0.297451250000     0.330275625000     0.277456150000   
C      0.407850450000     0.242918120000     0.108992310000   
C      0.437837650000     0.274910950000     0.127941430000   
C      0.452060370000     0.324514800000     0.119560890000   
C      0.441987930000     0.341817750000     0.090788355000   
C      0.415558280000     0.307928400000     0.070385360000   
C      0.443958300000     0.263183175000     0.158948185000   
C      0.420587500000     0.314618700000     0.037712910000   
C      0.394196480000     0.191929150000     0.117071800000   
C      0.359532100000     0.162997600000     0.099267340000   
C      0.333999800000     0.187467400000     0.075135725000   
C      0.345993670000     0.238743735000     0.067378490000   
C      0.389698850000     0.263371900000     0.081671990000   
C      0.349867750000     0.106338775000     0.106000885000   
C      0.291597215000     0.098194460000     0.114883810000   
C      0.281505735000     0.312010765000     0.060776575000   
C      0.456867100000     0.397587625000     0.083955480000   
C      0.407136500000     0.432181750000     0.076806070000   
C      0.172271685000     0.419127450000     0.468077700000   
C      0.109614430000     0.419403300000     0.475237370000   
C      0.181044385000     0.326224550000     0.466000400000   
C      0.117163060000     0.326967180000     0.466557680000   
C      0.184677360000     0.372354775000     0.015549660000   
C      0.120908270000     0.361100500000     0.018543305000   
C      0.400966000000     0.175211000000     0.159355100000   
C      0.461384775000     0.422506780000     0.124776540000   
C      0.460565050000     0.424129425000     0.069955545000   
C      0.416823925000     0.173216910000     0.105162060000   
C      0.436740070000     0.149988220000     0.078626950000   
C      0.452546600000     0.096584720000     0.076973150000   
C      0.441176100000     0.063524885000     0.101570755000   
C      0.424643665000     0.088499495000     0.129740650000   
C      0.447114525000     0.006987280000     0.099458605000   
C      0.448731750000     0.477662685000     0.126109215000   
C      0.435164950000     0.003424035000     0.153551490000   
C      0.421124000000     0.057319760000     0.155525750000   
C      0.448557375000     0.478474765000     0.071643480000   
C      0.468667200000     0.396033350000     0.096564210000   
C      0.413036000000     0.144224500000     0.131193920000   
C      0.470412000000     0.397831200000     0.040229240000   
C      0.485910800000     0.339191975000     0.094883860000   
C      0.466867030000     0.392162750000     0.152800275000   
C      0.488670825000     0.080134205000     0.051407595000   
C      0.131025350000     0.282682000000     0.319185750000   
C      0.048340180000     0.284636700000     0.349518200000   
C      0.302974750000     0.300052300000     0.372061520000   
C      0.298603400000     0.318922650000     0.319005280000   
C      0.243221370000     0.317630650000     0.320291150000   
C      0.217084185000     0.298578850000     0.345640300000   
C      0.045451065000     0.256563150000     0.296111200000   
C      0.328490150000     0.317295580000     0.400461585000   
C      0.078964085000     0.285276025000     0.375591950000   
C      0.074717170000     0.279383125000     0.321279150000   
C      0.329949450000     0.306953550000     0.344212770000   
C      0.459061800000     0.321845620000     0.336601615000   
C      0.247311010000     0.290504215000     0.372160450000   
C      0.175266535000     0.214180080000     0.287762950000   
C      0.412518175000     0.300329750000     0.312584600000   
C      0.230533240000     0.247911215000     0.451760920000   
C      0.161108775000     0.290259180000     0.345834750000   
C      0.134956180000     0.285250550000     0.373887630000   
C      0.165009825000     0.276184050000     0.399741920000   
C      0.221314800000     0.273800435000     0.398403885000   
I      0.288283525000     0.193709670000     0.286858550000   
I      0.160625000000     0.214111750000     0.137655390000   
N      0.404296130000     0.248276830000     0.221404315000   
N      0.044612455000     0.159544570000     0.203109650000   
N      0.310582550000     0.266481700000     0.047583690000   
N      0.112709090000     0.306848650000     0.028609395000   
N      0.197706475000     0.422812100000     0.030344905000   
N      0.093744695000     0.395370600000     0.041973235000   
N      0.202234285000     0.373484015000     0.482427550000   
N      0.093377925000     0.368306300000     0.488497885000   
N      0.216809840000     0.332487600000     0.032114205000   
N      0.491313070000     0.282272815000     0.352036500000   
N      0.157965720000     0.268981280000     0.291452380000   
N      0.387589125000     0.304385125000     0.342186450000   
N      0.252745480000     0.251167350000     0.421942850000   
O      0.400156750000     0.275199620000     0.170856970000   
O      0.048751795000     0.132621800000     0.253656950000   
O      0.041617850000     0.186220990000     0.151440410000   
O      0.407290800000     0.221600450000     0.273073550000   
O      0.243342175000     0.148444700000     0.185951620000   
O      0.205566375000     0.259376700000     0.238562330000   
O      0.425818025000     0.256612150000     0.268431550000   
O      0.455473700000     0.181963965000     0.290834785000   
O      0.390147475000     0.341481050000     0.421472750000   
O      0.476008300000     0.363881400000     0.413794050000   
O      0.034134210000     0.164388350000     0.423065350000   
O      0.045423030000     0.190331500000     0.316849770000   
O      0.382609950000     0.327800125000     0.301938025000   
O      0.451774200000     0.348943000000     0.027161650000   
O      0.397220450000     0.282759000000     0.019837150000   
O      0.410923250000     0.285525150000     0.177815630000   
O      0.481470150000     0.230917575000     0.166842100000   
O      0.349544550000     0.180689975000     0.167841330000   
O      0.443113250000     0.195964335000     0.172643200000   
O      0.428195200000     0.377821900000     0.026695995000   
O      0.021527170000     0.393042100000     0.031484060000   
O      0.463038115000     0.308951900000     0.078096085000   
O      0.028551040000     0.320442150000     0.112477580000   
O      0.440239130000     0.353607700000     0.156359200000   
O      0.002991020000     0.407475850000     0.174863980000   
O      0.028550685000     0.051492145000     0.055579980000   
O      0.478242665000     0.099178545000     0.022744470000   
O      0.404277830000     0.079849155000     0.182746500000   
O      0.022232755000     0.213863450000     0.300898950000   
O      0.377240775000     0.303911850000     0.405592830000   
O      0.045180710000     0.276900380000     0.269905150000   
O      0.303122370000     0.350330450000     0.418417800000   
F      0.100805100000     0.277547550000     0.472841550000   
F      0.179647135000     0.417360250000     0.437104730000   
F      0.081879885000     0.428390700000     0.448988850000   
F      0.192785340000     0.466198175000     0.476661600000   
F      0.095001915000     0.462145000000     0.493431420000   
F      0.199101510000     0.324455770000     0.436453900000   
F      0.098146980000     0.335661830000     0.437792100000   
F      0.201215060000     0.279649975000     0.477368920000   
Cu     0.048155350000     0.199194520000     0.722402810000   
Cu     0.452261625000     0.222253220000     0.721501680000   
Cu     0.326392920000     0.366272180000     0.974508150000   
Cu     0.423836750000     0.362253875000     0.979263725000   
H      0.152099650000     0.154032735000     0.749218650000   
H      0.296808930000     0.253788680000     0.675295340000   
H      0.373997330000     0.278297500000     0.654254915000   
H      0.074911235000     0.129523920000     0.770259050000   
H      0.003014495000     0.188457900000     0.655948350000   
H      0.445900300000     0.219365135000     0.768565750000   
H      0.281769780000     0.148665460000     0.691293225000   
H      0.167137085000     0.259145450000     0.733227165000   
H      0.385843900000     0.369126800000     0.855840950000   
H      0.475901365000     0.253159285000     0.923047250000   
H      0.062220395000     0.225590630000     0.949257600000   
H      0.105767190000     0.204505490000     0.917937725000   
H      0.128655670000     0.121046065000     0.941875430000   
H      0.141507925000     0.175467940000     0.967246530000   
H      0.082891760000     0.137501570000     0.972651100000   
H      0.056729435000     0.135763900000     0.868116615000   
H      0.111797870000     0.142526565000     0.828495620000   
H      0.114553215000     0.211195750000     0.840650400000   
H      0.122883560000     0.235554440000     0.787220100000   
H      0.177121460000     0.192085150000     0.799456050000   
H      0.124957800000     0.165836515000     0.776620030000   
H      0.310206800000     0.345421165000     0.824496300000   
H      0.321152700000     0.277299670000     0.812071550000   
H      0.313536850000     0.303860500000     0.758957600000   
H      0.254073085000     0.323542350000     0.780698700000   
H      0.302067370000     0.371782150000     0.771219400000   
H      0.471394900000     0.349748100000     0.635793225000   
H      0.410988000000     0.174185110000     0.636961580000   
H      0.303713975000     0.167103100000     0.562725390000   
H      0.280049300000     0.123142615000     0.634779900000   
H      0.264034600000     0.107765145000     0.596142790000   
H      0.287111850000     0.056461830000     0.620640160000   
H      0.360520750000     0.081433265000     0.585784575000   
H      0.376125200000     0.092457995000     0.624540895000   
H      0.286272500000     0.242998240000     0.534923675000   
H      0.309582980000     0.341247530000     0.569437035000   
H      0.255085200000     0.299938050000     0.579374835000   
H      0.256219050000     0.331229000000     0.543400345000   
H      0.385457000000     0.415848800000     0.557337975000   
H      0.379422700000     0.435025900000     0.596523500000   
H      0.419288200000     0.472285650000     0.571389770000   
H      0.476315250000     0.416283130000     0.603633330000   
H      0.487405800000     0.398299900000     0.565774785000   
H      0.219387040000     0.294106275000     0.523873865000   
H      0.204782965000     0.331956550000     0.554670575000   
H      0.137720140000     0.278044600000     0.518211485000   
H      0.120440075000     0.303590180000     0.551537990000   
H      0.195862725000     0.420328320000     0.553745985000   
H      0.172107935000     0.454446150000     0.525049625000   
H      0.110569375000     0.388086765000     0.562992335000   
H      0.095394855000     0.435372100000     0.539301930000   
H      0.432826250000     0.481244175000     0.673871265000   
H      0.439868630000     0.497830870000     0.550819315000   
H      0.407668800000     0.215259580000     0.605891800000   
H      0.443737030000     0.175106870000     0.559825020000   
H      0.036692140000     0.281324100000     0.609274840000   
H      0.003279685000     0.383701450000     0.692797690000   
H      0.005891440000     0.085531405000     0.507255705000   
H      0.403403135000     0.052625985000     0.698257385000   
H      0.059002710000     0.283934475000     0.897291350000   
H      0.221488060000     0.332289575000     0.801136880000   
H      0.316276900000     0.330478430000     0.798080900000   
H      0.476269350000     0.273101050000     0.872832550000   
H      0.438343500000     0.349113435000     0.853270770000   
H      0.428305750000     0.302249100000     0.822982650000   
H      0.483631970000     0.345427700000     0.821465820000   
H      0.141140730000     0.284965950000     0.772514450000   
H      0.201016740000     0.201775270000     0.806811450000   
H      0.139956070000     0.189172985000     0.786454765000   
H      0.199132235000     0.208483620000     0.766654750000   
H      0.405783600000     0.278373000000     0.856692730000   
H      0.456602900000     0.294119600000     0.814591850000   
H      0.404963700000     0.337283100000     0.800310950000   
H      0.397277350000     0.266367000000     0.799617020000   
H      0.279842975000     0.221139580000     0.915366750000   
H      0.263499380000     0.239593685000     0.967830120000   
H      0.202298030000     0.215536670000     0.952506350000   
H      0.210164450000     0.286159500000     0.958306750000   
H      0.144232660000     0.266974180000     0.920250900000   
C      0.375183880000     0.256261900000     0.695818915000   
C      0.073724685000     0.151559515000     0.728695050000   
C      0.320064600000     0.246723860000     0.695385700000   
C      0.128843965000     0.161097550000     0.729128270000   
C      0.294532650000     0.229528325000     0.721073390000   
C      0.154375910000     0.178293100000     0.703440550000   
C      0.324616900000     0.221299260000     0.747081815000   
C      0.124291660000     0.186522170000     0.677432150000   
C      0.379813700000     0.230263850000     0.746861815000   
C      0.069094905000     0.177557550000     0.677652150000   
C      0.235723585000     0.223170025000     0.720868530000   
C      0.213185010000     0.184651390000     0.703645425000   
C      0.465122650000     0.262728650000     0.874984770000   
C      0.435104950000     0.310607650000     0.877665075000   
C      0.409026350000     0.332170300000     0.853236525000   
C      0.411660580000     0.306440700000     0.825426370000   
C      0.445686500000     0.260607100000     0.821137935000   
C      0.433373650000     0.340798525000     0.905455550000   
C      0.443552730000     0.232029185000     0.791929780000   
C      0.485182550000     0.237501935000     0.900721300000   
C      0.016102075000     0.190627530000     0.898022550000   
C      0.030619025000     0.170868700000     0.869635400000   
C      0.016474545000     0.198920565000     0.843628650000   
C      0.475629480000     0.240051880000     0.846031150000   
C      0.077609000000     0.191009565000     0.935506730000   
C      0.109626470000     0.153936790000     0.955607050000   
C      0.101406635000     0.183816400000     0.822463630000   
C      0.133470950000     0.195144015000     0.794537850000   
C      0.327541400000     0.318885685000     0.806317750000   
C      0.297451250000     0.330275625000     0.777456150000   
C      0.407850450000     0.242918120000     0.608992310000   
C      0.437837650000     0.274910950000     0.627941430000   
C      0.452060370000     0.324514800000     0.619560890000   
C      0.441987930000     0.341817750000     0.590788355000   
C      0.415558280000     0.307928400000     0.570385360000   
C      0.443958300000     0.263183175000     0.658948185000   
C      0.420587500000     0.314618700000     0.537712910000   
C      0.394196480000     0.191929150000     0.617071800000   
C      0.359532100000     0.162997600000     0.599267340000   
C      0.333999800000     0.187467400000     0.575135725000   
C      0.345993670000     0.238743735000     0.567378490000   
C      0.389698850000     0.263371900000     0.581671990000   
C      0.349867750000     0.106338775000     0.606000885000   
C      0.291597215000     0.098194460000     0.614883810000   
C      0.281505735000     0.312010765000     0.560776575000   
C      0.456867100000     0.397587625000     0.583955480000   
C      0.407136500000     0.432181750000     0.576806070000   
C      0.172271685000     0.419127450000     0.968077700000   
C      0.109614430000     0.419403300000     0.975237370000   
C      0.181044385000     0.326224550000     0.966000400000   
C      0.117163060000     0.326967180000     0.966557680000   
C      0.184677360000     0.372354775000     0.515549660000   
C      0.120908270000     0.361100500000     0.518543305000   
C      0.400966000000     0.175211000000     0.659355100000   
C      0.461384775000     0.422506780000     0.624776540000   
C      0.460565050000     0.424129425000     0.569955545000   
C      0.416823925000     0.173216910000     0.605162060000   
C      0.436740070000     0.149988220000     0.578626950000   
C      0.452546600000     0.096584720000     0.576973150000   
C      0.441176100000     0.063524885000     0.601570755000   
C      0.424643665000     0.088499495000     0.629740650000   
C      0.447114525000     0.006987280000     0.599458605000   
C      0.448731750000     0.477662685000     0.626109215000   
C      0.435164950000     0.003424035000     0.653551490000   
C      0.421124000000     0.057319760000     0.655525750000   
C      0.448557375000     0.478474765000     0.571643480000   
C      0.468667200000     0.396033350000     0.596564210000   
C      0.413036000000     0.144224500000     0.631193920000   
C      0.470412000000     0.397831200000     0.540229240000   
C      0.485910800000     0.339191975000     0.594883860000   
C      0.466867030000     0.392162750000     0.652800275000   
C      0.488670825000     0.080134205000     0.551407595000   
C      0.131025350000     0.282682000000     0.819185750000   
C      0.048340180000     0.284636700000     0.849518200000   
C      0.302974750000     0.300052300000     0.872061520000   
C      0.298603400000     0.318922650000     0.819005280000   
C      0.243221370000     0.317630650000     0.820291150000   
C      0.217084185000     0.298578850000     0.845640300000   
C      0.045451065000     0.256563150000     0.796111200000   
C      0.328490150000     0.317295580000     0.900461585000   
C      0.078964085000     0.285276025000     0.875591950000   
C      0.074717170000     0.279383125000     0.821279150000   
C      0.329949450000     0.306953550000     0.844212770000   
C      0.459061800000     0.321845620000     0.836601615000   
C      0.247311010000     0.290504215000     0.872160450000   
C      0.175266535000     0.214180080000     0.787762950000   
C      0.412518175000     0.300329750000     0.812584600000   
C      0.230533240000     0.247911215000     0.951760920000   
C      0.161108775000     0.290259180000     0.845834750000   
C      0.134956180000     0.285250550000     0.873887630000   
C      0.165009825000     0.276184050000     0.899741920000   
C      0.221314800000     0.273800435000     0.898403885000   
I      0.288283525000     0.193709670000     0.786858550000   
I      0.160625000000     0.214111750000     0.637655390000   
N      0.404296130000     0.248276830000     0.721404315000   
N      0.044612455000     0.159544570000     0.703109650000   
N      0.310582550000     0.266481700000     0.547583690000   
N      0.112709090000     0.306848650000     0.528609395000   
N      0.197706475000     0.422812100000     0.530344905000   
N      0.093744695000     0.395370600000     0.541973235000   
N      0.202234285000     0.373484015000     0.982427550000   
N      0.093377925000     0.368306300000     0.988497885000   
N      0.216809840000     0.332487600000     0.532114205000   
N      0.491313070000     0.282272815000     0.852036500000   
N      0.157965720000     0.268981280000     0.791452380000   
N      0.387589125000     0.304385125000     0.842186450000   
N      0.252745480000     0.251167350000     0.921942850000   
O      0.400156750000     0.275199620000     0.670856970000   
O      0.048751795000     0.132621800000     0.753656950000   
O      0.041617850000     0.186220990000     0.651440410000   
O      0.407290800000     0.221600450000     0.773073550000   
O      0.243342175000     0.148444700000     0.685951620000   
O      0.205566375000     0.259376700000     0.738562330000   
O      0.425818025000     0.256612150000     0.768431550000   
O      0.455473700000     0.181963965000     0.790834785000   
O      0.390147475000     0.341481050000     0.921472750000   
O      0.476008300000     0.363881400000     0.913794050000   
O      0.034134210000     0.164388350000     0.923065350000   
O      0.045423030000     0.190331500000     0.816849770000   
O      0.382609950000     0.327800125000     0.801938025000   
O      0.451774200000     0.348943000000     0.527161650000   
O      0.397220450000     0.282759000000     0.519837150000   
O      0.410923250000     0.285525150000     0.677815630000   
O      0.481470150000     0.230917575000     0.666842100000   
O      0.349544550000     0.180689975000     0.667841330000   
O      0.443113250000     0.195964335000     0.672643200000   
O      0.428195200000     0.377821900000     0.526695995000   
O      0.021527170000     0.393042100000     0.531484060000   
O      0.463038115000     0.308951900000     0.578096085000   
O      0.028551040000     0.320442150000     0.612477580000   
O      0.440239130000     0.353607700000     0.656359200000   
O      0.002991020000     0.407475850000     0.674863980000   
O      0.028550685000     0.051492145000     0.555579980000   
O      0.478242665000     0.099178545000     0.522744470000   
O      0.404277830000     0.079849155000     0.682746500000   
O      0.022232755000     0.213863450000     0.800898950000   
O      0.377240775000     0.303911850000     0.905592830000   
O      0.045180710000     0.276900380000     0.769905150000   
O      0.303122370000     0.350330450000     0.918417800000   
F      0.100805100000     0.277547550000     0.972841550000   
F      0.179647135000     0.417360250000     0.937104730000   
F      0.081879885000     0.428390700000     0.948988850000   
F      0.192785340000     0.466198175000     0.976661600000   
F      0.095001915000     0.462145000000     0.993431420000   
F      0.199101510000     0.324455770000     0.936453900000   
F      0.098146980000     0.335661830000     0.937792100000   
F      0.201215060000     0.279649975000     0.977368920000   
Cu     0.048155350000     0.699194520000     0.222402810000   
Cu     0.452261625000     0.722253220000     0.221501680000   
Cu     0.326392920000     0.866272180000     0.474508150000   
Cu     0.423836750000     0.862253875000     0.479263725000   
H      0.152099650000     0.654032735000     0.249218650000   
H      0.296808930000     0.753788680000     0.175295340000   
H      0.373997330000     0.778297500000     0.154254915000   
H      0.074911235000     0.629523920000     0.270259050000   
H      0.003014495000     0.688457900000     0.155948350000   
H      0.445900300000     0.719365135000     0.268565750000   
H      0.281769780000     0.648665460000     0.191293225000   
H      0.167137085000     0.759145450000     0.233227165000   