%BLOCK LATTICE_CART
ang    # angstrom units
  12.956597390000    0.000000000000     0.000000000000   
  0.155194914515     14.364833596376    0.000000000000   
  0.276848876759     1.335255765302     15.429224661857  
%ENDBLOCK LATTICE_CART

%BLOCK POSITIONS_FRAC
C      0.441974625000     0.235683625000     0.477087410000   
C      0.006250855000     0.189087750000     0.323313000000   
C      0.048226790000     0.153214000000     0.327569000000   
C      0.013366175000     0.119063000000     0.306799000000   
C      0.025999940000     0.139472000000     0.370587250000   
C      0.028350450000     0.086742000000     0.274881000000   
C      0.453057500000     0.223453500000     0.432617665000   
C      0.472162000000     0.154730000000     0.302116000000   
C      0.452157000000     0.143241000000     0.346656000000   
C      0.482173000000     0.173422125000     0.365063000000   
C      0.491964000000     0.105215000000     0.349518000000   
C      0.465691500000     0.203693750000     0.400358300000   
C      0.002535185000     0.428199325000     0.107168000000   
C      0.030005865000     0.349924000000     0.117160750000   
C      0.033734715000     0.396232000000     0.127035000000   
C      0.010297185000     0.474394965000     0.111291750000   
C      0.495207875000     0.333158250000     0.087203000000   
C      0.467549625000     0.412270515000     0.077186125000   
C      0.463410125000     0.365825500000     0.067551750000   
C      0.488653875000     0.285811875000     0.084401375000   
C      0.040418300000     0.060056750000     0.248411750000   
C      0.051173500000     0.033477125000     0.212000375000   
C      0.079843860000     0.153786625000     0.068665875000   
C      0.137587625000     0.154173625000     0.070527750000   
C      0.239813000000     0.146012375000     0.084297250000   
C      0.184255875000     0.151189875000     0.075520125000   
C      0.259938875000     0.114041500000     0.110598625000   
C      0.316181375000     0.108751375000     0.119433750000   
C      0.412521125000     0.108063000000     0.124673000000   
C      0.363684500000     0.108078375000     0.122353500000   
H      0.088602800000     0.157772000000     0.319962000000   
H      0.012015825000     0.223934000000     0.312971000000   
H      0.048152110000     0.133536000000     0.399141000000   
H      0.485946000000     0.070315000000     0.359998500000   
H      0.415351000000     0.138619000000     0.353113000000   
H      0.449820000000     0.160472000000     0.273562000000   
H      0.068974275000     0.437947215000     0.160389875000   
H      0.056033225000     0.290240250000     0.131869625000   
H      0.426833625000     0.322054375000     0.034595125000   
H      0.440833000000     0.472458110000     0.064238125000   
H      0.232874000000     0.091321500000     0.125033250000   
H      0.265453750000     0.169355750000     0.069182000000   
N      0.011600250000     0.021705125000     0.109502375000   
N      0.482475500000     0.245700125000     0.081616625000   
O      0.069683135000     0.408301865000     0.156041750000   
O      0.061652735000     0.321845250000     0.139143000000   
O      0.427301875000     0.354706750000     0.038699500000   
O      0.435862625000     0.441026250000     0.055741875000   
O      0.077521475000     0.055150875000     0.183789500000   
O      0.052799600000     0.124811875000     0.094979875000   
O      0.053758200000     0.179255875000     0.040671875000   
O      0.010652260000     0.024907375000     0.191826375000   
O      0.440349125000     0.136915000000     0.098536125000   
O      0.438576875000     0.082208500000     0.152625625000   
O      0.480584500000     0.240068875000     0.001256750000   
O      0.418341500000     0.206415250000     0.001413875000   
Zn     0.015828750000     0.073615625000     0.141620500000   
Zn     0.477004500000     0.189735625000     0.050518750000   
C      0.441974625000     0.235683625000     0.977087410000   
C      0.006250855000     0.189087750000     0.823313000000   
C      0.048226790000     0.153214000000     0.827569000000   
C      0.013366175000     0.119063000000     0.806799000000   
C      0.025999940000     0.139472000000     0.870587250000   
C      0.028350450000     0.086742000000     0.774881000000   
C      0.453057500000     0.223453500000     0.932617665000   
C      0.472162000000     0.154730000000     0.802116000000   
C      0.452157000000     0.143241000000     0.846656000000   
C      0.482173000000     0.173422125000     0.865063000000   
C      0.491964000000     0.105215000000     0.849518000000   
C      0.465691500000     0.203693750000     0.900358300000   
C      0.002535185000     0.428199325000     0.607168000000   
C      0.030005865000     0.349924000000     0.617160750000   
C      0.033734715000     0.396232000000     0.627035000000   
C      0.010297185000     0.474394965000     0.611291750000   
C      0.495207875000     0.333158250000     0.587203000000   
C      0.467549625000     0.412270515000     0.577186125000   
C      0.463410125000     0.365825500000     0.567551750000   
C      0.488653875000     0.285811875000     0.584401375000   
C      0.040418300000     0.060056750000     0.748411750000   
C      0.051173500000     0.033477125000     0.712000375000   
C      0.079843860000     0.153786625000     0.568665875000   
C      0.137587625000     0.154173625000     0.570527750000   
C      0.239813000000     0.146012375000     0.584297250000   
C      0.184255875000     0.151189875000     0.575520125000   
C      0.259938875000     0.114041500000     0.610598625000   
C      0.316181375000     0.108751375000     0.619433750000   
C      0.412521125000     0.108063000000     0.624673000000   
C      0.363684500000     0.108078375000     0.622353500000   
H      0.088602800000     0.157772000000     0.819962000000   
H      0.012015825000     0.223934000000     0.812971000000   
H      0.048152110000     0.133536000000     0.899141000000   
H      0.485946000000     0.070315000000     0.859998500000   
H      0.415351000000     0.138619000000     0.853113000000   
H      0.449820000000     0.160472000000     0.773562000000   
H      0.068974275000     0.437947215000     0.660389875000   
H      0.056033225000     0.290240250000     0.631869625000   
H      0.426833625000     0.322054375000     0.534595125000   
H      0.440833000000     0.472458110000     0.564238125000   
H      0.232874000000     0.091321500000     0.625033250000   
H      0.265453750000     0.169355750000     0.569182000000   
N      0.011600250000     0.021705125000     0.609502375000   
N      0.482475500000     0.245700125000     0.581616625000   
O      0.069683135000     0.408301865000     0.656041750000   
O      0.061652735000     0.321845250000     0.639143000000   
O      0.427301875000     0.354706750000     0.538699500000   
O      0.435862625000     0.441026250000     0.555741875000   
O      0.077521475000     0.055150875000     0.683789500000   
O      0.052799600000     0.124811875000     0.594979875000   
O      0.053758200000     0.179255875000     0.540671875000   
O      0.010652260000     0.024907375000     0.691826375000   
O      0.440349125000     0.136915000000     0.598536125000   
O      0.438576875000     0.082208500000     0.652625625000   
O      0.480584500000     0.240068875000     0.501256750000   
O      0.418341500000     0.206415250000     0.501413875000   
Zn     0.015828750000     0.073615625000     0.641620500000   
Zn     0.477004500000     0.189735625000     0.550518750000   
C      0.441974625000     0.735683625000     0.477087410000   
C      0.006250855000     0.689087750000     0.323313000000   
C      0.048226790000     0.653214000000     0.327569000000   
C      0.013366175000     0.619063000000     0.306799000000   
C      0.025999940000     0.639472000000     0.370587250000   
C      0.028350450000     0.586742000000     0.274881000000   
C      0.453057500000     0.723453500000     0.432617665000   
C      0.472162000000     0.654730000000     0.302116000000   
C      0.452157000000     0.643241000000     0.346656000000   
C      0.482173000000     0.673422125000     0.365063000000   
C      0.491964000000     0.605215000000     0.349518000000   
C      0.465691500000     0.703693750000     0.400358300000   
C      0.002535185000     0.928199325000     0.107168000000   
C      0.030005865000     0.849924000000     0.117160750000   
C      0.033734715000     0.896232000000     0.127035000000   
C      0.010297185000     0.974394965000     0.111291750000   
C      0.495207875000     0.833158250000     0.087203000000   
C      0.467549625000     0.912270515000     0.077186125000   
C      0.463410125000     0.865825500000     0.067551750000   
C      0.488653875000     0.785811875000     0.084401375000   
C      0.040418300000     0.560056750000     0.248411750000   
C      0.051173500000     0.533477125000     0.212000375000   
C      0.079843860000     0.653786625000     0.068665875000   
C      0.137587625000     0.654173625000     0.070527750000   
C      0.239813000000     0.646012375000     0.084297250000   
C      0.184255875000     0.651189875000     0.075520125000   
C      0.259938875000     0.614041500000     0.110598625000   
C      0.316181375000     0.608751375000     0.119433750000   
C      0.412521125000     0.608063000000     0.124673000000   
C      0.363684500000     0.608078375000     0.122353500000   
H      0.088602800000     0.657772000000     0.319962000000   
H      0.012015825000     0.723934000000     0.312971000000   
H      0.048152110000     0.633536000000     0.399141000000   
H      0.485946000000     0.570315000000     0.359998500000   
H      0.415351000000     0.638619000000     0.353113000000   
H      0.449820000000     0.660472000000     0.273562000000   
H      0.068974275000     0.937947215000     0.160389875000   
H      0.056033225000     0.790240250000     0.131869625000   
H      0.426833625000     0.822054375000     0.034595125000   
H      0.440833000000     0.972458110000     0.064238125000   
H      0.232874000000     0.591321500000     0.125033250000   
H      0.265453750000     0.669355750000     0.069182000000   
N      0.011600250000     0.521705125000     0.109502375000   
N      0.482475500000     0.745700125000     0.081616625000   
O      0.069683135000     0.908301865000     0.156041750000   
O      0.061652735000     0.821845250000     0.139143000000   
O      0.427301875000     0.854706750000     0.038699500000   
O      0.435862625000     0.941026250000     0.055741875000   
O      0.077521475000     0.555150875000     0.183789500000   
O      0.052799600000     0.624811875000     0.094979875000   
O      0.053758200000     0.679255875000     0.040671875000   
O      0.010652260000     0.524907375000     0.191826375000   
O      0.440349125000     0.636915000000     0.098536125000   
O      0.438576875000     0.582208500000     0.152625625000   
O      0.480584500000     0.740068875000     0.001256750000   
O      0.418341500000     0.706415250000     0.001413875000   
Zn     0.015828750000     0.573615625000     0.141620500000   
Zn     0.477004500000     0.689735625000     0.050518750000   
C      0.441974625000     0.735683625000     0.977087410000   
C      0.006250855000     0.689087750000     0.823313000000   
C      0.048226790000     0.653214000000     0.827569000000   
C      0.013366175000     0.619063000000     0.806799000000   
C      0.025999940000     0.639472000000     0.870587250000   
C      0.028350450000     0.586742000000     0.774881000000   
C      0.453057500000     0.723453500000     0.932617665000   
C      0.472162000000     0.654730000000     0.802116000000   
C      0.452157000000     0.643241000000     0.846656000000   
C      0.482173000000     0.673422125000     0.865063000000   
C      0.491964000000     0.605215000000     0.849518000000   
C      0.465691500000     0.703693750000     0.900358300000   
C      0.002535185000     0.928199325000     0.607168000000   
C      0.030005865000     0.849924000000     0.617160750000   
C      0.033734715000     0.896232000000     0.627035000000   
C      0.010297185000     0.974394965000     0.611291750000   
C      0.495207875000     0.833158250000     0.587203000000   
C      0.467549625000     0.912270515000     0.577186125000   
C      0.463410125000     0.865825500000     0.567551750000   
C      0.488653875000     0.785811875000     0.584401375000   
C      0.040418300000     0.560056750000     0.748411750000   
C      0.051173500000     0.533477125000     0.712000375000   
C      0.079843860000     0.653786625000     0.568665875000   
C      0.137587625000     0.654173625000     0.570527750000   
C      0.239813000000     0.646012375000     0.584297250000   
C      0.184255875000     0.651189875000     0.575520125000   
C      0.259938875000     0.614041500000     0.610598625000   
C      0.316181375000     0.608751375000     0.619433750000   
C      0.412521125000     0.608063000000     0.624673000000   
C      0.363684500000     0.608078375000     0.622353500000   
H      0.088602800000     0.657772000000     0.819962000000   
H      0.012015825000     0.723934000000     0.812971000000   
H      0.048152110000     0.633536000000     0.899141000000   
H      0.485946000000     0.570315000000     0.859998500000   
H      0.415351000000     0.638619000000     0.853113000000   
H      0.449820000000     0.660472000000     0.773562000000   
H      0.068974275000     0.937947215000     0.660389875000   
H      0.056033225000     0.790240250000     0.631869625000   
H      0.426833625000     0.822054375000     0.534595125000   
H      0.440833000000     0.972458110000     0.564238125000   
H      0.232874000000     0.591321500000     0.625033250000   
H      0.265453750000     0.669355750000     0.569182000000   
N      0.011600250000     0.521705125000     0.609502375000   
N      0.482475500000     0.745700125000     0.581616625000   
O      0.069683135000     0.908301865000     0.656041750000   
O      0.061652735000     0.821845250000     0.639143000000   
O      0.427301875000     0.854706750000     0.538699500000   
O      0.435862625000     0.941026250000     0.555741875000   
O      0.077521475000     0.555150875000     0.683789500000   
O      0.052799600000     0.624811875000     0.594979875000   
O      0.053758200000     0.679255875000     0.540671875000   
O      0.010652260000     0.524907375000     0.691826375000   
O      0.440349125000     0.636915000000     0.598536125000   
O      0.438576875000     0.582208500000     0.652625625000   
O      0.480584500000     0.740068875000     0.501256750000   
O      0.418341500000     0.706415250000     0.501413875000   
Zn     0.015828750000     0.573615625000     0.641620500000   
Zn     0.477004500000     0.689735625000     0.550518750000   
C      0.941974625000     0.235683625000     0.477087410000   
C      0.506250855000     0.189087750000     0.323313000000   
C      0.548226790000     0.153214000000     0.327569000000   
C      0.513366175000     0.119063000000     0.306799000000   
C      0.525999940000     0.139472000000     0.370587250000   
C      0.528350450000     0.086742000000     0.274881000000   
C      0.953057500000     0.223453500000     0.432617665000   
C      0.972162000000     0.154730000000     0.302116000000   
C      0.952157000000     0.143241000000     0.346656000000   
C      0.982173000000     0.173422125000     0.365063000000   
C      0.991964000000     0.105215000000     0.349518000000   
C      0.965691500000     0.203693750000     0.400358300000   
C      0.502535185000     0.428199325000     0.107168000000   
C      0.530005865000     0.349924000000     0.117160750000   
C      0.533734715000     0.396232000000     0.127035000000   
C      0.510297185000     0.474394965000     0.111291750000   
C      0.995207875000     0.333158250000     0.087203000000   
C      0.967549625000     0.412270515000     0.077186125000   
C      0.963410125000     0.365825500000     0.067551750000   
C      0.988653875000     0.285811875000     0.084401375000   
C      0.540418300000     0.060056750000     0.248411750000   
C      0.551173500000     0.033477125000     0.212000375000   
C      0.579843860000     0.153786625000     0.068665875000   
C      0.637587625000     0.154173625000     0.070527750000   
C      0.739813000000     0.146012375000     0.084297250000   
C      0.684255875000     0.151189875000     0.075520125000   
C      0.759938875000     0.114041500000     0.110598625000   
C      0.816181375000     0.108751375000     0.119433750000   
C      0.912521125000     0.108063000000     0.124673000000   
C      0.863684500000     0.108078375000     0.122353500000   
H      0.588602800000     0.157772000000     0.319962000000   
H      0.512015825000     0.223934000000     0.312971000000   
H      0.548152110000     0.133536000000     0.399141000000   
H      0.985946000000     0.070315000000     0.359998500000   
H      0.915351000000     0.138619000000     0.353113000000   
H      0.949820000000     0.160472000000     0.273562000000   
H      0.568974275000     0.437947215000     0.160389875000   
H      0.556033225000     0.290240250000     0.131869625000   
H      0.926833625000     0.322054375000     0.034595125000   
H      0.940833000000     0.472458110000     0.064238125000   
H      0.732874000000     0.091321500000     0.125033250000   
H      0.765453750000     0.169355750000     0.069182000000   
N      0.511600250000     0.021705125000     0.109502375000   
N      0.982475500000     0.245700125000     0.081616625000   
O      0.569683135000     0.408301865000     0.156041750000   
O      0.561652735000     0.321845250000     0.139143000000   
O      0.927301875000     0.354706750000     0.038699500000   
O      0.935862625000     0.441026250000     0.055741875000   
O      0.577521475000     0.055150875000     0.183789500000   
O      0.552799600000     0.124811875000     0.094979875000   
O      0.553758200000     0.179255875000     0.040671875000   
O      0.510652260000     0.024907375000     0.191826375000   
O      0.940349125000     0.136915000000     0.098536125000   
O      0.938576875000     0.082208500000     0.152625625000   
O      0.980584500000     0.240068875000     0.001256750000   
O      0.918341500000     0.206415250000     0.001413875000   
Zn     0.515828750000     0.073615625000     0.141620500000   
Zn     0.977004500000     0.189735625000     0.050518750000   
C      0.941974625000     0.235683625000     0.977087410000   
C      0.506250855000     0.189087750000     0.823313000000   
C      0.548226790000     0.153214000000     0.827569000000   
C      0.513366175000     0.119063000000     0.806799000000   
C      0.525999940000     0.139472000000     0.870587250000   
C      0.528350450000     0.086742000000     0.774881000000   
C      0.953057500000     0.223453500000     0.932617665000   
C      0.972162000000     0.154730000000     0.802116000000   
C      0.952157000000     0.143241000000     0.846656000000   
C      0.982173000000     0.173422125000     0.865063000000   
C      0.991964000000     0.105215000000     0.849518000000   
C      0.965691500000     0.203693750000     0.900358300000   
C      0.502535185000     0.428199325000     0.607168000000   
C      0.530005865000     0.349924000000     0.617160750000   
C      0.533734715000     0.396232000000     0.627035000000   
C      0.510297185000     0.474394965000     0.611291750000   
C      0.995207875000     0.333158250000     0.587203000000   
C      0.967549625000     0.412270515000     0.577186125000   
C      0.963410125000     0.365825500000     0.567551750000   
C      0.988653875000     0.285811875000     0.584401375000   
C      0.540418300000     0.060056750000     0.748411750000   
C      0.551173500000     0.033477125000     0.712000375000   
C      0.579843860000     0.153786625000     0.568665875000   
C      0.637587625000     0.154173625000     0.570527750000   
C      0.739813000000     0.146012375000     0.584297250000   
C      0.684255875000     0.151189875000     0.575520125000   
C      0.759938875000     0.114041500000     0.610598625000   
C      0.816181375000     0.108751375000     0.619433750000   
C      0.912521125000     0.108063000000     0.624673000000   
C      0.863684500000     0.108078375000     0.622353500000   
H      0.588602800000     0.157772000000     0.819962000000   
H      0.512015825000     0.223934000000     0.812971000000   
H      0.548152110000     0.133536000000     0.899141000000   
H      0.985946000000     0.070315000000     0.859998500000   
H      0.915351000000     0.138619000000     0.853113000000   
H      0.949820000000     0.160472000000     0.773562000000   
H      0.568974275000     0.437947215000     0.660389875000   
H      0.556033225000     0.290240250000     0.631869625000   
H      0.926833625000     0.322054375000     0.534595125000   
H      0.940833000000     0.472458110000     0.564238125000   
H      0.732874000000     0.091321500000     0.625033250000   
H      0.765453750000     0.169355750000     0.569182000000   
N      0.511600250000     0.021705125000     0.609502375000   
N      0.982475500000     0.245700125000     0.581616625000   
O      0.569683135000     0.408301865000     0.656041750000   
O      0.561652735000     0.321845250000     0.639143000000   
O      0.927301875000     0.354706750000     0.538699500000   
O      0.935862625000     0.441026250000     0.555741875000   
O      0.577521475000     0.055150875000     0.683789500000   
O      0.552799600000     0.124811875000     0.594979875000   
O      0.553758200000     0.179255875000     0.540671875000   
O      0.510652260000     0.024907375000     0.691826375000   
O      0.940349125000     0.136915000000     0.598536125000   
O      0.938576875000     0.082208500000     0.652625625000   
O      0.980584500000     0.240068875000     0.501256750000   
O      0.918341500000     0.206415250000     0.501413875000   
Zn     0.515828750000     0.073615625000     0.641620500000   
Zn     0.977004500000     0.189735625000     0.550518750000   
C      0.941974625000     0.735683625000     0.477087410000   
C      0.506250855000     0.689087750000     0.323313000000   
C      0.548226790000     0.653214000000     0.327569000000   
C      0.513366175000     0.619063000000     0.306799000000   
C      0.525999940000     0.639472000000     0.370587250000   
C      0.528350450000     0.586742000000     0.274881000000   
C      0.953057500000     0.723453500000     0.432617665000   
C      0.972162000000     0.654730000000     0.302116000000   
C      0.952157000000     0.643241000000     0.346656000000   
C      0.982173000000     0.673422125000     0.365063000000   
C      0.991964000000     0.605215000000     0.349518000000   
C      0.965691500000     0.703693750000     0.400358300000   
C      0.502535185000     0.928199325000     0.107168000000   
C      0.530005865000     0.849924000000     0.117160750000   
C      0.533734715000     0.896232000000     0.127035000000   
C      0.510297185000     0.974394965000     0.111291750000   
C      0.995207875000     0.833158250000     0.087203000000   
C      0.967549625000     0.912270515000     0.077186125000   
C      0.963410125000     0.865825500000     0.067551750000   
C      0.988653875000     0.785811875000     0.084401375000   
C      0.540418300000     0.560056750000     0.248411750000   
C      0.551173500000     0.533477125000     0.212000375000   
C      0.579843860000     0.653786625000     0.068665875000   
C      0.637587625000     0.654173625000     0.070527750000   
C      0.739813000000     0.646012375000     0.084297250000   
C      0.684255875000     0.651189875000     0.075520125000   
C      0.759938875000     0.614041500000     0.110598625000   
C      0.816181375000     0.608751375000     0.119433750000   
C      0.912521125000     0.608063000000     0.124673000000   
C      0.863684500000     0.608078375000     0.122353500000   
H      0.588602800000     0.657772000000     0.319962000000   
H      0.512015825000     0.723934000000     0.312971000000   
H      0.548152110000     0.633536000000     0.399141000000   
H      0.985946000000     0.570315000000     0.359998500000   
H      0.915351000000     0.638619000000     0.353113000000   
H      0.949820000000     0.660472000000     0.273562000000   
H      0.568974275000     0.937947215000     0.160389875000   
H      0.556033225000     0.790240250000     0.131869625000   
H      0.926833625000     0.822054375000     0.034595125000   
H      0.940833000000     0.972458110000     0.064238125000   
H      0.732874000000     0.591321500000     0.125033250000   
H      0.765453750000     0.669355750000     0.069182000000   
N      0.511600250000     0.521705125000     0.109502375000   
N      0.982475500000     0.745700125000     0.081616625000   
O      0.569683135000     0.908301865000     0.156041750000   
O      0.561652735000     0.821845250000     0.139143000000   
O      0.927301875000     0.854706750000     0.038699500000   
O      0.935862625000     0.941026250000     0.055741875000   
O      0.577521475000     0.555150875000     0.183789500000   
O      0.552799600000     0.624811875000     0.094979875000   
O      0.553758200000     0.679255875000     0.040671875000   
O      0.510652260000     0.524907375000     0.191826375000   
O      0.940349125000     0.636915000000     0.098536125000   
O      0.938576875000     0.582208500000     0.152625625000   
O      0.980584500000     0.740068875000     0.001256750000   
O      0.918341500000     0.706415250000     0.001413875000   
Zn     0.515828750000     0.573615625000     0.141620500000   
Zn     0.977004500000     0.689735625000     0.050518750000   
C      0.941974625000     0.735683625000     0.977087410000   
C      0.506250855000     0.689087750000     0.823313000000   
C      0.548226790000     0.653214000000     0.827569000000   
C      0.513366175000     0.619063000000     0.806799000000   
C      0.525999940000     0.639472000000     0.870587250000   
C      0.528350450000     0.586742000000     0.774881000000   
C      0.953057500000     0.723453500000     0.932617665000   
C      0.972162000000     0.654730000000     0.802116000000   
C      0.952157000000     0.643241000000     0.846656000000   
C      0.982173000000     0.673422125000     0.865063000000   
C      0.991964000000     0.605215000000     0.849518000000   
C      0.965691500000     0.703693750000     0.900358300000   
C      0.502535185000     0.928199325000     0.607168000000   
C      0.530005865000     0.849924000000     0.617160750000   
C      0.533734715000     0.896232000000     0.627035000000   
C      0.510297185000     0.974394965000     0.611291750000   
C      0.995207875000     0.833158250000     0.587203000000   
C      0.967549625000     0.912270515000     0.577186125000   
C      0.963410125000     0.865825500000     0.567551750000   
C      0.988653875000     0.785811875000     0.584401375000   
C      0.540418300000     0.560056750000     0.748411750000   
C      0.551173500000     0.533477125000     0.712000375000   
C      0.579843860000     0.653786625000     0.568665875000   
C      0.637587625000     0.654173625000     0.570527750000   
C      0.739813000000     0.646012375000     0.584297250000   
C      0.684255875000     0.651189875000     0.575520125000   
C      0.759938875000     0.614041500000     0.610598625000   
C      0.816181375000     0.608751375000     0.619433750000   
C      0.912521125000     0.608063000000     0.624673000000   
C      0.863684500000     0.608078375000     0.622353500000   
H      0.588602800000     0.657772000000     0.819962000000   
H      0.512015825000     0.723934000000     0.812971000000   
H      0.548152110000     0.633536000000     0.899141000000   
H      0.985946000000     0.570315000000     0.859998500000   
H      0.915351000000     0.638619000000     0.853113000000   
H      0.949820000000     0.660472000000     0.773562000000   
H      0.568974275000     0.937947215000     0.660389875000   
H      0.556033225000     0.790240250000     0.631869625000   
H      0.926833625000     0.822054375000     0.534595125000   
H      0.940833000000     0.972458110000     0.564238125000   
H      0.732874000000     0.591321500000     0.625033250000   
H      0.765453750000     0.669355750000     0.569182000000   
N      0.511600250000     0.521705125000     0.609502375000   
N      0.982475500000     0.745700125000     0.581616625000   
O      0.569683135000     0.908301865000     0.656041750000   
O      0.561652735000     0.821845250000     0.639143000000   
O      0.927301875000     0.854706750000     0.538699500000   
O      0.935862625000     0.941026250000     0.555741875000   
O      0.577521475000     0.555150875000     0.683789500000   
O      0.552799600000     0.624811875000     0.594979875000   
O      0.553758200000     0.679255875000     0.540671875000   
O      0.510652260000     0.524907375000     0.691826375000   
O      0.940349125000     0.636915000000     0.598536125000   
O      0.938576875000     0.582208500000     0.652625625000   
O      0.980584500000     0.740068875000     0.501256750000   
O      0.918341500000     0.706415250000     0.501413875000   
Zn     0.515828750000     0.573615625000     0.641620500000   
Zn     0.977004500000     0.689735625000     0.550518750000   
%ENDBLOCK POSITIONS_FRAC
