%BLOCK LATTICE_CART
ang    # angstrom units
  10.291580000000    0.000000000000     0.000000000000   
 -0.232939704728     10.711477459905    0.000000000000   
 -0.110545413195    -0.002195848008     12.959898357116  
%ENDBLOCK LATTICE_CART

%BLOCK POSITIONS_FRAC
Zn     0.151475115000     0.011643885000     0.203307630000   
Zn     0.088845930000     0.380025800000     0.205890200000   
H      0.008648510000     0.184544670000     0.176839725000   
H      0.128217025000     0.261912020000     0.213846950000   
H      0.185214340000     0.181052565000     0.206075250000   
H      0.047027940000     0.395108400000     0.375615030000   
H      0.223565475000     0.033238055000     0.446420250000   
H      0.046141855000     0.355403550000     0.052754880000   
H      0.201546880000     0.491469750000     0.031052230000   
H      0.199536500000     0.034204425000     0.353885680000   
H      0.024639175000     0.353899630000     0.459967100000   
C      0.056791485000     0.193376750000     0.193127575000   
C      0.082715945000     0.251005830000     0.194110825000   
C      0.090478555000     0.140767975000     0.215730750000   
C      0.155911600000     0.141690910000     0.219289700000   
C      0.048698405000     0.302725015000     0.172372160000   
C      0.192025300000     0.089279035000     0.237476630000   
C      0.330351830000     0.433062730000     0.204199400000   
C      0.398018180000     0.442282975000     0.228466735000   
C      0.134123175000     0.430110575000     0.102037070000   
C      0.149601400000     0.462777650000     0.463260920000   
C      0.110319240000     0.460354120000     0.304712050000   
C      0.121911690000     0.464328850000     0.359105700000   
C      0.124568460000     0.424506700000     0.047547040000   
C      0.063110330000     0.384121715000     0.475229800000   
C      0.075675100000     0.384636880000     0.027687550000   
C      0.162783250000     0.461806565000     0.015360535000   
C      0.099201230000     0.423779400000     0.443126080000   
C      0.085592090000     0.425100120000     0.391155570000   
C      0.171089170000     0.003915550000     0.378888900000   
C      0.185135380000     0.002968550000     0.431170550000   
Br     0.035185135000     0.072909100000     0.239296690000   
Br     0.402916580000     0.499883150000     0.284534635000   
Br     0.292462530000     0.350607785000     0.207824410000   
Br     0.446078270000     0.348210850000     0.166166990000   
Br     0.333966800000     0.058545830000     0.184901775000   
N      0.291806965000     0.479850680000     0.194538350000   
N      0.450711550000     0.412085450000     0.216192065000   
O      0.073490160000     0.357131100000     0.178341180000   
O      0.493334830000     0.293923900000     0.150677815000   
O      0.248561560000     0.098041765000     0.257477730000   
O      0.168406235000     0.034834620000     0.229814300000   
O      0.161000730000     0.480914050000     0.119775175000   
O      0.114687940000     0.384702600000     0.130967615000   
O      0.129175290000     0.006102325000     0.275789080000   
O      0.082862505000     0.409890900000     0.286981550000   
Zn     0.151475115000     0.011643885000     0.703307630000   
Zn     0.088845930000     0.380025800000     0.705890200000   
H      0.008648510000     0.184544670000     0.676839725000   
H      0.128217025000     0.261912020000     0.713846950000   
H      0.185214340000     0.181052565000     0.706075250000   
H      0.047027940000     0.395108400000     0.875615030000   
H      0.223565475000     0.033238055000     0.946420250000   
H      0.046141855000     0.355403550000     0.552754880000   
H      0.201546880000     0.491469750000     0.531052230000   
H      0.199536500000     0.034204425000     0.853885680000   
H      0.024639175000     0.353899630000     0.959967100000   
C      0.056791485000     0.193376750000     0.693127575000   
C      0.082715945000     0.251005830000     0.694110825000   
C      0.090478555000     0.140767975000     0.715730750000   
C      0.155911600000     0.141690910000     0.719289700000   
C      0.048698405000     0.302725015000     0.672372160000   
C      0.192025300000     0.089279035000     0.737476630000   
C      0.330351830000     0.433062730000     0.704199400000   
C      0.398018180000     0.442282975000     0.728466735000   
C      0.134123175000     0.430110575000     0.602037070000   
C      0.149601400000     0.462777650000     0.963260920000   
C      0.110319240000     0.460354120000     0.804712050000   
C      0.121911690000     0.464328850000     0.859105700000   
C      0.124568460000     0.424506700000     0.547547040000   
C      0.063110330000     0.384121715000     0.975229800000   
C      0.075675100000     0.384636880000     0.527687550000   
C      0.162783250000     0.461806565000     0.515360535000   
C      0.099201230000     0.423779400000     0.943126080000   
C      0.085592090000     0.425100120000     0.891155570000   
C      0.171089170000     0.003915550000     0.878888900000   
C      0.185135380000     0.002968550000     0.931170550000   
Br     0.035185135000     0.072909100000     0.739296690000   
Br     0.402916580000     0.499883150000     0.784534635000   
Br     0.292462530000     0.350607785000     0.707824410000   
Br     0.446078270000     0.348210850000     0.666166990000   
Br     0.333966800000     0.058545830000     0.684901775000   
N      0.291806965000     0.479850680000     0.694538350000   
N      0.450711550000     0.412085450000     0.716192065000   
O      0.073490160000     0.357131100000     0.678341180000   
O      0.493334830000     0.293923900000     0.650677815000   
O      0.248561560000     0.098041765000     0.757477730000   
O      0.168406235000     0.034834620000     0.729814300000   
O      0.161000730000     0.480914050000     0.619775175000   
O      0.114687940000     0.384702600000     0.630967615000   
O      0.129175290000     0.006102325000     0.775789080000   
O      0.082862505000     0.409890900000     0.786981550000   
Zn     0.151475115000     0.511643885000     0.203307630000   
Zn     0.088845930000     0.880025800000     0.205890200000   
H      0.008648510000     0.684544670000     0.176839725000   
H      0.128217025000     0.761912020000     0.213846950000   
H      0.185214340000     0.681052565000     0.206075250000   
H      0.047027940000     0.895108400000     0.375615030000   
H      0.223565475000     0.533238055000     0.446420250000   
H      0.046141855000     0.855403550000     0.052754880000   
H      0.201546880000     0.991469750000     0.031052230000   
H      0.199536500000     0.534204425000     0.353885680000   
H      0.024639175000     0.853899630000     0.459967100000   
C      0.056791485000     0.693376750000     0.193127575000   
C      0.082715945000     0.751005830000     0.194110825000   
C      0.090478555000     0.640767975000     0.215730750000   
C      0.155911600000     0.641690910000     0.219289700000   
C      0.048698405000     0.802725015000     0.172372160000   
C      0.192025300000     0.589279035000     0.237476630000   
C      0.330351830000     0.933062730000     0.204199400000   
C      0.398018180000     0.942282975000     0.228466735000   
C      0.134123175000     0.930110575000     0.102037070000   
C      0.149601400000     0.962777650000     0.463260920000   
C      0.110319240000     0.960354120000     0.304712050000   
C      0.121911690000     0.964328850000     0.359105700000   
C      0.124568460000     0.924506700000     0.047547040000   
C      0.063110330000     0.884121715000     0.475229800000   
C      0.075675100000     0.884636880000     0.027687550000   
C      0.162783250000     0.961806565000     0.015360535000   
C      0.099201230000     0.923779400000     0.443126080000   
C      0.085592090000     0.925100120000     0.391155570000   
C      0.171089170000     0.503915550000     0.378888900000   
C      0.185135380000     0.502968550000     0.431170550000   
Br     0.035185135000     0.572909100000     0.239296690000   
Br     0.402916580000     0.999883150000     0.284534635000   
Br     0.292462530000     0.850607785000     0.207824410000   
Br     0.446078270000     0.848210850000     0.166166990000   
Br     0.333966800000     0.558545830000     0.184901775000   
N      0.291806965000     0.979850680000     0.194538350000   
N      0.450711550000     0.912085450000     0.216192065000   
O      0.073490160000     0.857131100000     0.178341180000   
O      0.493334830000     0.793923900000     0.150677815000   
O      0.248561560000     0.598041765000     0.257477730000   
O      0.168406235000     0.534834620000     0.229814300000   
O      0.161000730000     0.980914050000     0.119775175000   
O      0.114687940000     0.884702600000     0.130967615000   
O      0.129175290000     0.506102325000     0.275789080000   
O      0.082862505000     0.909890900000     0.286981550000   
Zn     0.151475115000     0.511643885000     0.703307630000   
Zn     0.088845930000     0.880025800000     0.705890200000   
H      0.008648510000     0.684544670000     0.676839725000   
H      0.128217025000     0.761912020000     0.713846950000   
H      0.185214340000     0.681052565000     0.706075250000   
H      0.047027940000     0.895108400000     0.875615030000   
H      0.223565475000     0.533238055000     0.946420250000   
H      0.046141855000     0.855403550000     0.552754880000   
H      0.201546880000     0.991469750000     0.531052230000   
H      0.199536500000     0.534204425000     0.853885680000   
H      0.024639175000     0.853899630000     0.959967100000   
C      0.056791485000     0.693376750000     0.693127575000   
C      0.082715945000     0.751005830000     0.694110825000   
C      0.090478555000     0.640767975000     0.715730750000   
C      0.155911600000     0.641690910000     0.719289700000   
C      0.048698405000     0.802725015000     0.672372160000   
C      0.192025300000     0.589279035000     0.737476630000   
C      0.330351830000     0.933062730000     0.704199400000   
C      0.398018180000     0.942282975000     0.728466735000   
C      0.134123175000     0.930110575000     0.602037070000   
C      0.149601400000     0.962777650000     0.963260920000   
C      0.110319240000     0.960354120000     0.804712050000   
C      0.121911690000     0.964328850000     0.859105700000   
C      0.124568460000     0.924506700000     0.547547040000   
C      0.063110330000     0.884121715000     0.975229800000   
C      0.075675100000     0.884636880000     0.527687550000   
C      0.162783250000     0.961806565000     0.515360535000   
C      0.099201230000     0.923779400000     0.943126080000   
C      0.085592090000     0.925100120000     0.891155570000   
C      0.171089170000     0.503915550000     0.878888900000   
C      0.185135380000     0.502968550000     0.931170550000   
Br     0.035185135000     0.572909100000     0.739296690000   
Br     0.402916580000     0.999883150000     0.784534635000   
Br     0.292462530000     0.850607785000     0.707824410000   
Br     0.446078270000     0.848210850000     0.666166990000   
Br     0.333966800000     0.558545830000     0.684901775000   
N      0.291806965000     0.979850680000     0.694538350000   
N      0.450711550000     0.912085450000     0.716192065000   
O      0.073490160000     0.857131100000     0.678341180000   
O      0.493334830000     0.793923900000     0.650677815000   
O      0.248561560000     0.598041765000     0.757477730000   
O      0.168406235000     0.534834620000     0.729814300000   
O      0.161000730000     0.980914050000     0.619775175000   
O      0.114687940000     0.884702600000     0.630967615000   
O      0.129175290000     0.506102325000     0.775789080000   
O      0.082862505000     0.909890900000     0.786981550000   
Zn     0.651475115000     0.011643885000     0.203307630000   
Zn     0.588845930000     0.380025800000     0.205890200000   
H      0.508648510000     0.184544670000     0.176839725000   
H      0.628217025000     0.261912020000     0.213846950000   
H      0.685214340000     0.181052565000     0.206075250000   
H      0.547027940000     0.395108400000     0.375615030000   
H      0.723565475000     0.033238055000     0.446420250000   
H      0.546141855000     0.355403550000     0.052754880000   
H      0.701546880000     0.491469750000     0.031052230000   
H      0.699536500000     0.034204425000     0.353885680000   
H      0.524639175000     0.353899630000     0.459967100000   
C      0.556791485000     0.193376750000     0.193127575000   
C      0.582715945000     0.251005830000     0.194110825000   
C      0.590478555000     0.140767975000     0.215730750000   
C      0.655911600000     0.141690910000     0.219289700000   
C      0.548698405000     0.302725015000     0.172372160000   
C      0.692025300000     0.089279035000     0.237476630000   
C      0.830351830000     0.433062730000     0.204199400000   
C      0.898018180000     0.442282975000     0.228466735000   
C      0.634123175000     0.430110575000     0.102037070000   
C      0.649601400000     0.462777650000     0.463260920000   
C      0.610319240000     0.460354120000     0.304712050000   
C      0.621911690000     0.464328850000     0.359105700000   
C      0.624568460000     0.424506700000     0.047547040000   
C      0.563110330000     0.384121715000     0.475229800000   
C      0.575675100000     0.384636880000     0.027687550000   
C      0.662783250000     0.461806565000     0.015360535000   
C      0.599201230000     0.423779400000     0.443126080000   
C      0.585592090000     0.425100120000     0.391155570000   
C      0.671089170000     0.003915550000     0.378888900000   
C      0.685135380000     0.002968550000     0.431170550000   
Br     0.535185135000     0.072909100000     0.239296690000   
Br     0.902916580000     0.499883150000     0.284534635000   
Br     0.792462530000     0.350607785000     0.207824410000   
Br     0.946078270000     0.348210850000     0.166166990000   
Br     0.833966800000     0.058545830000     0.184901775000   
N      0.791806965000     0.479850680000     0.194538350000   
N      0.950711550000     0.412085450000     0.216192065000   
O      0.573490160000     0.357131100000     0.178341180000   
O      0.993334830000     0.293923900000     0.150677815000   
O      0.748561560000     0.098041765000     0.257477730000   
O      0.668406235000     0.034834620000     0.229814300000   
O      0.661000730000     0.480914050000     0.119775175000   
O      0.614687940000     0.384702600000     0.130967615000   
O      0.629175290000     0.006102325000     0.275789080000   
O      0.582862505000     0.409890900000     0.286981550000   
Zn     0.651475115000     0.011643885000     0.703307630000   
Zn     0.588845930000     0.380025800000     0.705890200000   
H      0.508648510000     0.184544670000     0.676839725000   
H      0.628217025000     0.261912020000     0.713846950000   
H      0.685214340000     0.181052565000     0.706075250000   
H      0.547027940000     0.395108400000     0.875615030000   
H      0.723565475000     0.033238055000     0.946420250000   
H      0.546141855000     0.355403550000     0.552754880000   
H      0.701546880000     0.491469750000     0.531052230000   
H      0.699536500000     0.034204425000     0.853885680000   
H      0.524639175000     0.353899630000     0.959967100000   
C      0.556791485000     0.193376750000     0.693127575000   
C      0.582715945000     0.251005830000     0.694110825000   
C      0.590478555000     0.140767975000     0.715730750000   
C      0.655911600000     0.141690910000     0.719289700000   
C      0.548698405000     0.302725015000     0.672372160000   
C      0.692025300000     0.089279035000     0.737476630000   
C      0.830351830000     0.433062730000     0.704199400000   
C      0.898018180000     0.442282975000     0.728466735000   
C      0.634123175000     0.430110575000     0.602037070000   
C      0.649601400000     0.462777650000     0.963260920000   
C      0.610319240000     0.460354120000     0.804712050000   
C      0.621911690000     0.464328850000     0.859105700000   
C      0.624568460000     0.424506700000     0.547547040000   
C      0.563110330000     0.384121715000     0.975229800000   
C      0.575675100000     0.384636880000     0.527687550000   
C      0.662783250000     0.461806565000     0.515360535000   
C      0.599201230000     0.423779400000     0.943126080000   
C      0.585592090000     0.425100120000     0.891155570000   
C      0.671089170000     0.003915550000     0.878888900000   
C      0.685135380000     0.002968550000     0.931170550000   
Br     0.535185135000     0.072909100000     0.739296690000   
Br     0.902916580000     0.499883150000     0.784534635000   
Br     0.792462530000     0.350607785000     0.707824410000   
Br     0.946078270000     0.348210850000     0.666166990000   
Br     0.833966800000     0.058545830000     0.684901775000   
N      0.791806965000     0.479850680000     0.694538350000   
N      0.950711550000     0.412085450000     0.716192065000   
O      0.573490160000     0.357131100000     0.678341180000   
O      0.993334830000     0.293923900000     0.650677815000   
O      0.748561560000     0.098041765000     0.757477730000   
O      0.668406235000     0.034834620000     0.729814300000   
O      0.661000730000     0.480914050000     0.619775175000   
O      0.614687940000     0.384702600000     0.630967615000   
O      0.629175290000     0.006102325000     0.775789080000   
O      0.582862505000     0.409890900000     0.786981550000   
Zn     0.651475115000     0.511643885000     0.203307630000   
Zn     0.588845930000     0.880025800000     0.205890200000   
H      0.508648510000     0.684544670000     0.176839725000   
H      0.628217025000     0.761912020000     0.213846950000   
H      0.685214340000     0.681052565000     0.206075250000   
H      0.547027940000     0.895108400000     0.375615030000   
H      0.723565475000     0.533238055000     0.446420250000   
H      0.546141855000     0.855403550000     0.052754880000   
H      0.701546880000     0.991469750000     0.031052230000   
H      0.699536500000     0.534204425000     0.353885680000   
H      0.524639175000     0.853899630000     0.459967100000   
C      0.556791485000     0.693376750000     0.193127575000   
C      0.582715945000     0.751005830000     0.194110825000   
C      0.590478555000     0.640767975000     0.215730750000   
C      0.655911600000     0.641690910000     0.219289700000   
C      0.548698405000     0.802725015000     0.172372160000   
C      0.692025300000     0.589279035000     0.237476630000   
C      0.830351830000     0.933062730000     0.204199400000   
C      0.898018180000     0.942282975000     0.228466735000   
C      0.634123175000     0.930110575000     0.102037070000   
C      0.649601400000     0.962777650000     0.463260920000   
C      0.610319240000     0.960354120000     0.304712050000   
C      0.621911690000     0.964328850000     0.359105700000   
C      0.624568460000     0.924506700000     0.047547040000   
C      0.563110330000     0.884121715000     0.475229800000   
C      0.575675100000     0.884636880000     0.027687550000   
C      0.662783250000     0.961806565000     0.015360535000   
C      0.599201230000     0.923779400000     0.443126080000   
C      0.585592090000     0.925100120000     0.391155570000   
C      0.671089170000     0.503915550000     0.378888900000   
C      0.685135380000     0.502968550000     0.431170550000   
Br     0.535185135000     0.572909100000     0.239296690000   
Br     0.902916580000     0.999883150000     0.284534635000   
Br     0.792462530000     0.850607785000     0.207824410000   
Br     0.946078270000     0.848210850000     0.166166990000   
Br     0.833966800000     0.558545830000     0.184901775000   
N      0.791806965000     0.979850680000     0.194538350000   
N      0.950711550000     0.912085450000     0.216192065000   
O      0.573490160000     0.857131100000     0.178341180000   
O      0.993334830000     0.793923900000     0.150677815000   
O      0.748561560000     0.598041765000     0.257477730000   
O      0.668406235000     0.534834620000     0.229814300000   
O      0.661000730000     0.980914050000     0.119775175000   
O      0.614687940000     0.884702600000     0.130967615000   
O      0.629175290000     0.506102325000     0.275789080000   
O      0.582862505000     0.909890900000     0.286981550000   
Zn     0.651475115000     0.511643885000     0.703307630000   
Zn     0.588845930000     0.880025800000     0.705890200000   
H      0.508648510000     0.684544670000     0.676839725000   
H      0.628217025000     0.761912020000     0.713846950000   
H      0.685214340000     0.681052565000     0.706075250000   
H      0.547027940000     0.895108400000     0.875615030000   
H      0.723565475000     0.533238055000     0.946420250000   
H      0.546141855000     0.855403550000     0.552754880000   
H      0.701546880000     0.991469750000     0.531052230000   
H      0.699536500000     0.534204425000     0.853885680000   
H      0.524639175000     0.853899630000     0.959967100000   
C      0.556791485000     0.693376750000     0.693127575000   
C      0.582715945000     0.751005830000     0.694110825000   
C      0.590478555000     0.640767975000     0.715730750000   
C      0.655911600000     0.641690910000     0.719289700000   
C      0.548698405000     0.802725015000     0.672372160000   
C      0.692025300000     0.589279035000     0.737476630000   
C      0.830351830000     0.933062730000     0.704199400000   
C      0.898018180000     0.942282975000     0.728466735000   
C      0.634123175000     0.930110575000     0.602037070000   
C      0.649601400000     0.962777650000     0.963260920000   
C      0.610319240000     0.960354120000     0.804712050000   
C      0.621911690000     0.964328850000     0.859105700000   
C      0.624568460000     0.924506700000     0.547547040000   
C      0.563110330000     0.884121715000     0.975229800000   
C      0.575675100000     0.884636880000     0.527687550000   
C      0.662783250000     0.961806565000     0.515360535000   
C      0.599201230000     0.923779400000     0.943126080000   
C      0.585592090000     0.925100120000     0.891155570000   
C      0.671089170000     0.503915550000     0.878888900000   
C      0.685135380000     0.502968550000     0.931170550000   
Br     0.535185135000     0.572909100000     0.739296690000   
Br     0.902916580000     0.999883150000     0.784534635000   
Br     0.792462530000     0.850607785000     0.707824410000   
Br     0.946078270000     0.848210850000     0.666166990000   
Br     0.833966800000     0.558545830000     0.684901775000   
N      0.791806965000     0.979850680000     0.694538350000   
N      0.950711550000     0.912085450000     0.716192065000   
O      0.573490160000     0.857131100000     0.678341180000   
O      0.993334830000     0.793923900000     0.650677815000   
O      0.748561560000     0.598041765000     0.757477730000   
O      0.668406235000     0.534834620000     0.729814300000   
O      0.661000730000     0.980914050000     0.619775175000   
O      0.614687940000     0.884702600000     0.630967615000   
O      0.629175290000     0.506102325000     0.775789080000   
O      0.582862505000     0.909890900000     0.786981550000   
%ENDBLOCK POSITIONS_FRAC
