%BLOCK LATTICE_CART
ang    # angstrom units
  25.031460000000    0.000000000000     0.000000000000   
  0.074020600755     28.379673468938    0.000000000000   
 -0.318513035604    -0.469254519749     28.289515596451  
%ENDBLOCK LATTICE_CART

%BLOCK POSITIONS_FRAC
Zn     0.354781150000     0.297413020000     0.353741550000   
Zn     0.301684080000     0.302036435000     0.340145550000   
Zn     0.320769280000     0.063419870000     0.341974050000   
Zn     0.363131950000     0.033491885000     0.363337650000   
Zn     0.322756170000     0.042749785000     0.093939965000   
Zn     0.377343415000     0.055933170000     0.109538385000   
Zn     0.114946360000     0.307540050000     0.147817350000   
Zn     0.093337015000     0.291723000000     0.099918740000   
Zn     0.092782675000     0.296690850000     0.329890300000   
Zn     0.152107820000     0.298732150000     0.330501615000   
Zn     0.100891015000     0.075228385000     0.105282975000   
Zn     0.096796765000     0.023481950000     0.112348660000   
H      0.030766065000     0.360645385000     0.145051050000   
H      0.079845735000     0.363411875000     0.140186520000   
H      0.110241265000     0.341763375000     0.166874035000   
H      0.042412255000     0.315438200000     0.204279050000   
H      0.012204185000     0.336651750000     0.177154975000   
H      0.130654735000     0.260675580000     0.207407190000   
H      0.204077765000     0.249085650000     0.266602785000   
H      0.176751690000     0.228049770000     0.295070200000   
H      0.127934590000     0.233937050000     0.295878000000   
H      0.106220970000     0.262129550000     0.269134650000   
H      0.132003160000     0.361580350000     0.217879890000   
H      0.118834125000     0.403040400000     0.225383565000   
H      0.074705355000     0.412388200000     0.242623880000   
H      0.043569790000     0.380156070000     0.252405700000   
H      0.056335670000     0.338597800000     0.244776370000   
H      0.173765940000     0.314860550000     0.238332735000   
H      0.205966650000     0.333046850000     0.212239920000   
H      0.239927860000     0.308724050000     0.191912875000   
H      0.240786450000     0.265317000000     0.197278530000   
H      0.208416350000     0.246655465000     0.223179550000   
H      0.123077900000     0.325490830000     0.018889845000   
H      0.175005480000     0.241894600000     0.481697150000   
H      0.159181790000     0.312956900000     0.002776565000   
H      0.093534200000     0.262379550000     0.441473650000   
H      0.064414025000     0.387874930000     0.494924350000   
H      0.018067040000     0.383706870000     0.002160370000   
H      0.035452675000     0.363940650000     0.021754980000   
H      0.020091520000     0.352783550000     0.494614200000   
H      0.072481095000     0.305563700000     0.405665400000   
H      0.068293385000     0.274144175000     0.407929630000   
H      0.039662395000     0.292669700000     0.402981550000   
H      0.044782480000     0.278335050000     0.445196550000   
H      0.040605345000     0.308412350000     0.442832770000   
H      0.073002875000     0.386365100000     0.451469630000   
H      0.099323150000     0.368104250000     0.439359650000   
H      0.071535855000     0.377176000000     0.421118000000   
H      0.064915895000     0.337409230000     0.429946780000   
H      0.040492705000     0.353217065000     0.446969775000   
H      0.201986500000     0.296474280000     0.007805290000   
H      0.220393985000     0.266379050000     0.031073330000   
H      0.197681800000     0.245242315000     0.018172860000   
H      0.185316580000     0.268146150000     0.038007320000   
H      0.124665565000     0.316004400000     0.265544175000   
H      0.103394200000     0.277295470000     0.242747275000   
H      0.149512960000     0.330232350000     0.249436450000   
H      0.122699125000     0.261434250000     0.221528650000   
H      0.148867475000     0.336202300000     0.200089050000   
H      0.143071620000     0.312349950000     0.179717570000   
H      0.176889880000     0.310012300000     0.219108865000   
H      0.163044470000     0.285246250000     0.203051520000   
H      0.076122195000     0.359215615000     0.210718825000   
H      0.108390780000     0.316810280000     0.154664010000   
H      0.139738140000     0.289999125000     0.286704800000   
H      0.173692800000     0.252853600000     0.227098250000   
H      0.115702680000     0.348257480000     0.230408265000   
H      0.109828400000     0.282575430000     0.190248115000   
H      0.096353330000     0.347473100000     0.277184550000   
H      0.080631795000     0.365629200000     0.255013585000   
H      0.060650970000     0.346627175000     0.272825900000   
H      0.065529540000     0.329546125000     0.233272525000   
H      0.080680445000     0.311337235000     0.254614470000   
H      0.049437750000     0.306175200000     0.182662450000   
H      0.068647705000     0.282568930000     0.168753965000   
H      0.038219540000     0.276482850000     0.184020015000   
H      0.070797035000     0.265061320000     0.210923925000   
H      0.060966175000     0.292862030000     0.221943170000   
H      0.308831650000     0.307822850000     0.379715530000   
H      0.221154215000     0.287343530000     0.388205050000   
H      0.200207550000     0.260041835000     0.298928915000   
H      0.327410450000     0.316047520000     0.277490080000   
H      0.122514050000     0.387109750000     0.325734300000   
H      0.273905750000     0.324092865000     0.283655550000   
H      0.244284810000     0.330594120000     0.300649525000   
H      0.216818290000     0.307829100000     0.270920250000   
H      0.125186160000     0.262985615000     0.327729150000   
H      0.234279635000     0.332274885000     0.258108400000   
H      0.246542975000     0.302547500000     0.253710715000   
H      0.167195710000     0.352428975000     0.297334880000   
H      0.196118160000     0.334025550000     0.302184435000   
H      0.219487500000     0.367394650000     0.322519750000   
H      0.209578560000     0.374337100000     0.292618700000   
H      0.190733835000     0.386078120000     0.317233150000   
H      0.193842815000     0.076186400000     0.147065520000   
H      0.143544180000     0.002842850000     0.129638075000   
H      0.323372300000     0.133718850000     0.056727575000   
H      0.262349650000     0.138665185000     0.133964200000   
H      0.232461035000     0.122200260000     0.140621400000   
H      0.261002450000     0.121437275000     0.160345950000   
H      0.258024350000     0.084480040000     0.136267425000   
H      0.287837180000     0.100680100000     0.129931950000   
H      0.262753070000     0.118669500000     0.094387480000   
H      0.235345170000     0.100600700000     0.100390710000   
H      0.153595075000     0.098389475000     0.216513770000   
H      0.118980875000     0.090733590000     0.210780800000   
H      0.137721570000     0.075780010000     0.233456390000   
H      0.133514315000     0.050064260000     0.198213560000   
H      0.167750600000     0.058150365000     0.203007670000   
H      0.163515200000     0.090089845000     0.173509225000   
H      0.129812200000     0.083066755000     0.167427900000   
H      0.239190750000     0.489087550000     0.084349030000   
H      0.300635665000     0.024970335000     0.001289825000   
H      0.192150235000     0.001836435000     0.067638790000   
H      0.434032470000     0.458237470000     0.052340845000   
H      0.405567600000     0.444532275000     0.065464890000   
H      0.403206700000     0.473994750000     0.054209610000   
H      0.433428850000     0.456555130000     0.098503485000   
H      0.405882250000     0.475432100000     0.098160965000   
H      0.450427000000     0.115160400000     0.184845640000   
H      0.475372050000     0.120554870000     0.162886725000   
H      0.443012500000     0.134748920000     0.161667230000   
H      0.436266720000     0.105630830000     0.133330315000   
H      0.424206600000     0.091599210000     0.159844680000   
H      0.028311430000     0.084477580000     0.090226895000   
H      0.018060565000     0.110546700000     0.105680405000   
H      0.052786825000     0.105978110000     0.099757535000   
H      0.040503445000     0.099483215000     0.141388850000   
H      0.056097985000     0.074576260000     0.128860175000   
H      0.008293510000     0.467182070000     0.113068335000   
H      0.475236700000     0.455962720000     0.118612800000   
H      0.000079630000     0.437292300000     0.104935965000   
H      0.469905250000     0.450114700000     0.073642240000   
H      0.001238585000     0.463904150000     0.070271985000   
H      0.422397900000     0.044800930000     0.052114215000   
H      0.414619775000     0.015808400000     0.040885295000   
H      0.387950350000     0.036250295000     0.047444515000   
H      0.393297585000     0.005029930000     0.077343880000   
H      0.395910050000     0.031818555000     0.090425515000   
C      0.122800575000     0.318549600000     0.265320865000   
C      0.102142630000     0.279804080000     0.173161950000   
C      0.071722335000     0.352690300000     0.154001475000   
C      0.088903740000     0.340376200000     0.169074120000   
C      0.078500800000     0.326098380000     0.186752230000   
C      0.050747895000     0.325405550000     0.189987465000   
C      0.033596125000     0.337623350000     0.174828425000   
C      0.044065420000     0.351167320000     0.156760035000   
C      0.102664090000     0.322452875000     0.225308535000   
C      0.117718525000     0.309115915000     0.241564550000   
C      0.128214050000     0.286922600000     0.234871565000   
C      0.122735225000     0.277831500000     0.212412760000   
C      0.106895590000     0.290363430000     0.196496600000   
C      0.096614735000     0.312869800000     0.202821640000   
C      0.170815470000     0.267802120000     0.250562900000   
C      0.182714880000     0.252158200000     0.266683050000   
C      0.167336750000     0.240212915000     0.283000800000   
C      0.139841080000     0.243714080000     0.283623370000   
C      0.127663950000     0.259637175000     0.268368550000   
C      0.142809375000     0.271791900000     0.251758365000   
C      0.095124470000     0.347194820000     0.230915130000   
C      0.112711170000     0.365497700000     0.225511180000   
C      0.105284730000     0.388949335000     0.229658290000   
C      0.080373445000     0.394218830000     0.239333720000   
C      0.062841520000     0.376041800000     0.244882775000   
C      0.070128785000     0.352562550000     0.240630050000   
C      0.188310265000     0.279152250000     0.232914400000   
C      0.187828450000     0.303635050000     0.229380665000   
C      0.206347765000     0.314162150000     0.214614450000   
C      0.225443465000     0.300415900000     0.203055815000   
C      0.225900575000     0.276057720000     0.206059010000   
C      0.207449690000     0.265491300000     0.220830000000   
C      0.127386125000     0.233008070000     0.462006500000   
C      0.102118215000     0.366450050000     0.022384105000   
C      0.072631405000     0.338153350000     0.468100200000   
C      0.092079110000     0.347773820000     0.006789385000   
C      0.162087620000     0.257229030000     0.481319750000   
C      0.170130640000     0.277918100000     0.492960065000   
C      0.152533860000     0.297048570000     0.493732630000   
C      0.127219335000     0.295882015000     0.482341020000   
C      0.120901385000     0.276260970000     0.468088565000   
C      0.108025535000     0.313824600000     0.484861670000   
C      0.087088085000     0.316441650000     0.467950500000   
C      0.081331350000     0.296960325000     0.452546800000   
C      0.098211975000     0.277130785000     0.453114250000   
C      0.108834170000     0.328523130000     0.004702210000   
C      0.072940200000     0.352322070000     0.488882600000   
C      0.137195810000     0.256033125000     0.469722100000   
C      0.031038855000     0.367834420000     0.002928735000   
C      0.055104455000     0.294177700000     0.438969670000   
C      0.059248925000     0.291540830000     0.412292330000   
C      0.062135270000     0.349190100000     0.445379150000   
C      0.077465765000     0.371561380000     0.439134500000   
C      0.199857190000     0.263964770000     0.023831725000   
C      0.102602675000     0.497572150000     0.109329505000   
C      0.098884130000     0.327858030000     0.121252250000   
C      0.101992130000     0.471307350000     0.111156290000   
C      0.099430970000     0.354111600000     0.119399125000   
C      0.101499280000     0.449454950000     0.112679885000   
C      0.099895290000     0.375973165000     0.117855745000   
C      0.100926510000     0.423601150000     0.114496985000   
C      0.100451320000     0.401821375000     0.116029220000   
C      0.354392300000     0.053975740000     0.062014995000   
C      0.340588630000     0.044047920000     0.393837480000   
C      0.352256120000     0.052439405000     0.035989345000   
C      0.342724770000     0.045584255000     0.419863135000   
C      0.350477900000     0.051160465000     0.014324305000   
C      0.344502950000     0.046863150000     0.441528170000   
C      0.348379550000     0.049651295000     0.488758775000   
C      0.346601365000     0.048372365000     0.467093700000   
C      0.099788860000     0.242880670000     0.123337715000   
C      0.100139850000     0.221252500000     0.120274170000   
C      0.100911565000     0.174305200000     0.113658940000   
C      0.101330645000     0.148839650000     0.110066475000   
C      0.101681545000     0.127217200000     0.107003755000   
C      0.099382675000     0.268712650000     0.127029450000   
C      0.102091140000     0.101391145000     0.103311775000   
C      0.100555420000     0.195786790000     0.116682775000   
C      0.156909170000     0.279589300000     0.251919650000   
C      0.110211410000     0.329359175000     0.232229190000   
C      0.102061840000     0.291044385000     0.206730815000   
C      0.132226810000     0.318014250000     0.247502820000   
C      0.116849295000     0.279514370000     0.227417230000   
C      0.140829450000     0.317971600000     0.198477490000   
C      0.110875120000     0.317608980000     0.206588670000   
C      0.141592740000     0.294473320000     0.235567285000   
C      0.157885610000     0.301234500000     0.213699200000   
C      0.077639500000     0.348811850000     0.194674800000   
C      0.094829670000     0.327452850000     0.165032650000   
C      0.094991855000     0.330853750000     0.189360185000   
C      0.149242775000     0.277392400000     0.275209575000   
C      0.167387575000     0.257885450000     0.244655950000   
C      0.082888250000     0.328320475000     0.245385915000   
C      0.080086180000     0.348254900000     0.263730250000   
C      0.071843850000     0.284258050000     0.207339690000   
C      0.056356960000     0.287714150000     0.184200125000   
C      0.339040700000     0.448956650000     0.352265600000   
C      0.271823200000     0.375264750000     0.344829915000   
C      0.391628175000     0.005311015000     0.358052800000   
C      0.291666330000     0.394381585000     0.346942300000   
C      0.371796280000     0.486179950000     0.355912180000   
C      0.307031650000     0.411215950000     0.348645400000   
C      0.356445520000     0.469334275000     0.354220450000   
C      0.324447500000     0.431582900000     0.350614580000   
C      0.347703750000     0.046370310000     0.143393400000   
C      0.347807525000     0.051437780000     0.312375785000   
C      0.347714350000     0.047149365000     0.169560225000   
C      0.347770400000     0.050643020000     0.286208870000   
C      0.347718600000     0.047799265000     0.191318800000   
C      0.347745300000     0.049987180000     0.264450200000   
C      0.347720750000     0.048561535000     0.217002660000   
C      0.347729115000     0.049212780000     0.238766385000   
C      0.090528800000     0.298186750000     0.327853700000   
C      0.133203685000     0.322730300000     0.330198375000   
C      0.270463200000     0.298109830000     0.320473650000   
C      0.161373975000     0.323115765000     0.331860425000   
C      0.256546550000     0.302935000000     0.341413750000   
C      0.175762450000     0.301912950000     0.333866565000   
C      0.227919750000     0.303182100000     0.340218125000   
C      0.204103485000     0.302789050000     0.337825000000   
C      0.342058035000     0.301489385000     0.344209250000   
C      0.270345900000     0.306559600000     0.362869700000   
C      0.162752135000     0.280150200000     0.331469120000   
C      0.298180520000     0.305344880000     0.363128065000   
C      0.135086950000     0.279730150000     0.328753550000   
C      0.253916620000     0.317378135000     0.288712800000   
C      0.236800775000     0.314830850000     0.266458275000   
C      0.184266750000     0.348957420000     0.309580800000   
C      0.202133090000     0.370572950000     0.310576500000   
C      0.312565250000     0.300513030000     0.342454525000   
C      0.119959080000     0.300505200000     0.328605500000   
C      0.298455900000     0.295321050000     0.320999025000   
C      0.265059770000     0.041585880000     0.070403950000   
C      0.257012100000     0.059034370000     0.086802380000   
C      0.234102710000     0.054605190000     0.101309180000   
C      0.114002215000     0.033273700000     0.154285460000   
C      0.142798050000     0.036149290000     0.148837210000   
C      0.154149575000     0.019024035000     0.133730320000   
C      0.177480670000     0.023450530000     0.121434270000   
C      0.191381365000     0.044534455000     0.125968550000   
C      0.182283600000     0.060391255000     0.143270910000   
C      0.157973485000     0.056688505000     0.154828000000   
C      0.269932600000     0.081141480000     0.087866165000   
C      0.293766700000     0.084299440000     0.074911650000   
C      0.287320800000     0.045562930000     0.056026705000   
C      0.214818015000     0.050260960000     0.112886375000   
C      0.303799450000     0.065548150000     0.060591620000   
C      0.332717270000     0.064578665000     0.053903485000   
C      0.307610000000     0.107400825000     0.075400770000   
C      0.257469030000     0.101396865000     0.101953330000   
C      0.265718150000     0.100762660000     0.128124350000   
C      0.254642070000     0.122115440000     0.141542850000   
C      0.149152665000     0.075151190000     0.172843290000   
C      0.147776840000     0.064971930000     0.197758600000   
C      0.138977335000     0.083701140000     0.215700200000   
C      0.250237200000     0.019003620000     0.068436040000   
C      0.293098700000     0.028953325000     0.036068150000   
C      0.185022620000     0.006764400000     0.102316825000   
C      0.331939370000     0.148710850000     0.352141300000   
C      0.332414300000     0.170077310000     0.350795350000   
C      0.334100485000     0.245941450000     0.346016600000   
C      0.330253200000     0.072846720000     0.356920100000   
C      0.330867680000     0.100492885000     0.355178625000   
C      0.333486000000     0.218295290000     0.347758050000   
C      0.331342430000     0.121853410000     0.353833100000   
C      0.333011270000     0.196934775000     0.349103570000   
C      0.461138800000     0.077156470000     0.145698635000   
C      0.424141700000     0.470909450000     0.088184745000   
C      0.416364300000     0.461430100000     0.063582350000   
C      0.442131350000     0.097870080000     0.150413990000   
C      0.453671700000     0.118146175000     0.165815000000   
C      0.037419915000     0.084968240000     0.128214400000   
C      0.033906280000     0.097082930000     0.104474485000   
C      0.483301000000     0.463558735000     0.081643695000   
C      0.492175815000     0.455561300000     0.106115525000   
C      0.406482430000     0.020538450000     0.078299575000   
C      0.407996550000     0.030038080000     0.053210060000   
C      0.420606750000     0.066585960000     0.105537660000   
C      0.027795135000     0.031792280000     0.102486500000   
C      0.478862750000     0.072311590000     0.164345600000   
C      0.005942345000     0.071575435000     0.159127680000   
C      0.013506355000     0.070221670000     0.135309680000   
C      0.494297830000     0.060588255000     0.118844360000   
C      0.467041650000     0.066290945000     0.122716635000   
C      0.000697195000     0.041825970000     0.102778690000   
C      0.480111865000     0.028450380000     0.091623760000   
C      0.453067000000     0.034237215000     0.094562895000   
C      0.447308125000     0.056324565000     0.106389480000   
C      0.486104650000     0.007352770000     0.079447030000   
C      0.470380500000     0.487786350000     0.083071210000   
C      0.443070150000     0.491790900000     0.087002820000   
C      0.433967000000     0.015729850000     0.088200090000   
S      0.115166605000     0.349931120000     0.330125780000   
S      0.253318650000     0.312796475000     0.389513225000   
S      0.180691570000     0.253192750000     0.331980600000   
S      0.314882050000     0.284554750000     0.295156950000   
I      0.464516670000     0.068937080000     0.199668140000   
I      0.034735205000     0.074763245000     0.186670275000   
I      0.000343560000     0.009724780000     0.044916140000   
N      0.055486025000     0.372130900000     0.490391375000   
N      0.195750370000     0.279484035000     0.004079700000   
N      0.065199055000     0.354246600000     0.175001160000   
N      0.076390580000     0.341845570000     0.156194760000   
N      0.153308930000     0.255378400000     0.281173170000   
N      0.164500460000     0.242977380000     0.262366800000   
O      0.098295070000     0.257215100000     0.170949965000   
O      0.147158500000     0.319491050000     0.273006900000   
O      0.102840630000     0.325908300000     0.277804225000   
O      0.102977165000     0.293401600000     0.155190020000   
O      0.144441320000     0.217909550000     0.453463225000   
O      0.102229415000     0.228087085000     0.465179850000   
O      0.127719100000     0.370379150000     0.021338045000   
O      0.085507200000     0.380556675000     0.033054650000   
O      0.079981545000     0.009323775000     0.105871745000   
O      0.125755220000     0.008813145000     0.111216850000   
O      0.101118565000     0.314559600000     0.101864725000   
O      0.096217590000     0.318156500000     0.142269685000   
O      0.375354825000     0.063948085000     0.071959615000   
O      0.335306970000     0.045353545000     0.074941875000   
O      0.350308200000     0.025628015000     0.382583750000   
O      0.328991850000     0.061117695000     0.382219800000   
O      0.109919010000     0.087727480000     0.120500865000   
O      0.094617040000     0.092320555000     0.082864315000   
O      0.106856785000     0.277783200000     0.147476900000   
O      0.091554805000     0.282376230000     0.109840340000   
O      0.246307550000     0.381778800000     0.342817875000   
O      0.417137535000     0.498794735000     0.360242750000   
O      0.279858320000     0.352603080000     0.345184850000   
O      0.383586750000     0.027970435000     0.357875750000   
O      0.369337170000     0.052163975000     0.132003980000   
O      0.326065800000     0.039888820000     0.131755160000   
O      0.340685200000     0.070840865000     0.323566250000   
O      0.354792150000     0.032682125000     0.324212150000   
O      0.076528015000     0.311850370000     0.341305550000   
O      0.356098600000     0.286713850000     0.332021300000   
O      0.079196340000     0.281934250000     0.314724700000   
O      0.272638950000     0.320491550000     0.408628200000   
O      0.233213065000     0.332126750000     0.385687770000   
O      0.237459375000     0.288394550000     0.398233650000   
O      0.190210090000     0.248951800000     0.356824220000   
O      0.163336665000     0.232978580000     0.323904485000   
O      0.353430250000     0.316629975000     0.358602150000   
O      0.207401365000     0.254664650000     0.314305780000   
O      0.328671750000     0.261755600000     0.300837150000   
O      0.295927850000     0.279823720000     0.274850450000   
O      0.337627770000     0.304298000000     0.286683150000   
O      0.095187985000     0.349401830000     0.310200350000   
O      0.100697480000     0.352910900000     0.353081525000   
O      0.134919940000     0.373542665000     0.326891100000   
O      0.256199775000     0.295197250000     0.299558600000   
O      0.175020920000     0.344276550000     0.332570730000   
O      0.100780620000     0.050313115000     0.163326160000   
O      0.102002280000     0.014994460000     0.146345185000   
O      0.341133800000     0.046332975000     0.043052585000   
O      0.349399475000     0.079874755000     0.062086215000   
O      0.313637970000     0.116936600000     0.094221940000   
O      0.314049570000     0.118061900000     0.054132660000   
O      0.239614380000     0.013115595000     0.049692810000   
O      0.248944075000     0.004366815000     0.088009695000   
O      0.295111715000     0.007793035000     0.039446655000   
O      0.296672165000     0.037816020000     0.013418150000   
O      0.185953320000     0.485627200000     0.106107850000   
O      0.189289720000     0.015082690000     0.079583885000   
O      0.311992675000     0.259394230000     0.349501200000   
O      0.352360950000     0.059393940000     0.353435500000   
O      0.356771050000     0.257810550000     0.340936900000   
O      0.307582600000     0.060977595000     0.361999800000   
O      0.030876695000     0.009103730000     0.103534650000   
O      0.410926970000     0.071726390000     0.125645370000   
O      0.407190600000     0.070012710000     0.085736140000   
O      0.047847750000     0.045678285000     0.100693055000   
Zn     0.354781150000     0.297413020000     0.853741550000   
Zn     0.301684080000     0.302036435000     0.840145550000   
Zn     0.320769280000     0.063419870000     0.841974050000   
Zn     0.363131950000     0.033491885000     0.863337650000   
Zn     0.322756170000     0.042749785000     0.593939965000   
Zn     0.377343415000     0.055933170000     0.609538385000   
Zn     0.114946360000     0.307540050000     0.647817350000   
Zn     0.093337015000     0.291723000000     0.599918740000   
Zn     0.092782675000     0.296690850000     0.829890300000   
Zn     0.152107820000     0.298732150000     0.830501615000   
Zn     0.100891015000     0.075228385000     0.605282975000   
Zn     0.096796765000     0.023481950000     0.612348660000   
H      0.030766065000     0.360645385000     0.645051050000   
H      0.079845735000     0.363411875000     0.640186520000   
H      0.110241265000     0.341763375000     0.666874035000   
H      0.042412255000     0.315438200000     0.704279050000   
H      0.012204185000     0.336651750000     0.677154975000   
H      0.130654735000     0.260675580000     0.707407190000   
H      0.204077765000     0.249085650000     0.766602785000   
H      0.176751690000     0.228049770000     0.795070200000   
H      0.127934590000     0.233937050000     0.795878000000   
H      0.106220970000     0.262129550000     0.769134650000   
H      0.132003160000     0.361580350000     0.717879890000   
H      0.118834125000     0.403040400000     0.725383565000   
H      0.074705355000     0.412388200000     0.742623880000   
H      0.043569790000     0.380156070000     0.752405700000   
H      0.056335670000     0.338597800000     0.744776370000   
H      0.173765940000     0.314860550000     0.738332735000   
H      0.205966650000     0.333046850000     0.712239920000   
H      0.239927860000     0.308724050000     0.691912875000   
H      0.240786450000     0.265317000000     0.697278530000   
H      0.208416350000     0.246655465000     0.723179550000   
H      0.123077900000     0.325490830000     0.518889845000   
H      0.175005480000     0.241894600000     0.981697150000   
H      0.159181790000     0.312956900000     0.502776565000   
H      0.093534200000     0.262379550000     0.941473650000   
H      0.064414025000     0.387874930000     0.994924350000   
H      0.018067040000     0.383706870000     0.502160370000   
H      0.035452675000     0.363940650000     0.521754980000   
H      0.020091520000     0.352783550000     0.994614200000   
H      0.072481095000     0.305563700000     0.905665400000   
H      0.068293385000     0.274144175000     0.907929630000   
H      0.039662395000     0.292669700000     0.902981550000   
H      0.044782480000     0.278335050000     0.945196550000   
H      0.040605345000     0.308412350000     0.942832770000   
H      0.073002875000     0.386365100000     0.951469630000   
H      0.099323150000     0.368104250000     0.939359650000   
H      0.071535855000     0.377176000000     0.921118000000   
H      0.064915895000     0.337409230000     0.929946780000   
H      0.040492705000     0.353217065000     0.946969775000   
H      0.201986500000     0.296474280000     0.507805290000   
H      0.220393985000     0.266379050000     0.531073330000   
H      0.197681800000     0.245242315000     0.518172860000   
H      0.185316580000     0.268146150000     0.538007320000   
H      0.124665565000     0.316004400000     0.765544175000   
H      0.103394200000     0.277295470000     0.742747275000   
H      0.149512960000     0.330232350000     0.749436450000   
H      0.122699125000     0.261434250000     0.721528650000   
H      0.148867475000     0.336202300000     0.700089050000   
H      0.143071620000     0.312349950000     0.679717570000   
H      0.176889880000     0.310012300000     0.719108865000   
H      0.163044470000     0.285246250000     0.703051520000   