%BLOCK LATTICE_CART
ang    # angstrom units
  10.027360000000    0.000000000000     0.000000000000   
  0.393564728976     15.006510020421    0.000000000000   
 -0.066790089652     0.061148373009     17.114250434083  
%ENDBLOCK LATTICE_CART

%BLOCK POSITIONS_FRAC
Zn     0.073547913333     0.290093450000     0.299621600000   
Zn     0.139206000000     0.219886140000     0.268802435000   
H      0.022630453333     0.214818000000     0.347155100000   
H      0.230065000000     0.281962400000     0.226663960000   
H      0.063565116667     0.296811135000     0.164686530000   
H      0.093501646667     0.170611000000     0.407286375000   
H      0.074607033333     0.313806950000     0.405020030000   
H      0.197990366667     0.243285970000     0.158795900000   
H      0.146518000000     0.280101950000     0.024842465000   
H      0.059189880000     0.297821750000     0.093663545000   
H      0.075967376667     0.314808400000     0.476516250000   
H      0.221916300000     0.455541850000     0.245551650000   
H      0.151801200000     0.099752195000     0.236802175000   
H      0.058227390000     0.408888600000     0.328882100000   
C      0.321895033333     0.223996200000     0.348157080000   
C      0.301167366667     0.216306950000     0.383670630000   
C      0.256922900000     0.230298935000     0.386754275000   
C      0.231076466667     0.229099035000     0.352658925000   
C      0.250374216667     0.242177635000     0.316415370000   
C      0.298449433333     0.241171090000     0.315396935000   
C      0.295627566667     0.269853385000     0.251758130000   
C      0.248308916667     0.269570620000     0.251885265000   
C      0.082793076667     0.240786550000     0.358064770000   
C      0.132713166667     0.268468600000     0.209556490000   
C      0.130827853333     0.269040450000     0.166854965000   
C      0.091954410000     0.284695500000     0.148082330000   
C      0.089396406667     0.285231680000     0.107616305000   
C      0.125110240000     0.268838675000     0.085276485000   
C      0.164885373333     0.254742025000     0.103833580000   
C      0.167602676667     0.254964600000     0.144580650000   
C      0.090134520000     0.202649220000     0.462818100000   
C      0.089280983333     0.202218575000     0.422170430000   
C      0.078991213333     0.282651425000     0.420795200000   
C      0.079687103333     0.283244220000     0.461462550000   
C      0.085101246667     0.243370050000     0.482631550000   
C      0.120393666667     0.266222600000     0.042673585000   
C      0.086821190000     0.245051620000     0.025345115000   
C      0.083735226667     0.242089240000     0.400880220000   
C      0.208775533333     0.372079700000     0.271231085000   
C      0.137506466667     0.407803800000     0.294733700000   
C      0.178511800000     0.411581875000     0.275522025000   
C      0.190369633333     0.453099800000     0.260389850000   
C      0.161423246667     0.490631880000     0.263410650000   
C      0.120260633333     0.486571750000     0.283050850000   
C      0.108668973333     0.445073425000     0.298792780000   
C      0.172364900000     0.032065260000     0.247047425000   
C      0.142639926667     0.068376450000     0.249848085000   
C      0.102097610000     0.064888290000     0.269674850000   
C      0.090703600000     0.023962425000     0.286930250000   
C      0.050162286667     0.020421895000     0.308069885000   
C      0.038751973333     0.477536950000     0.322425950000   
C      0.067982560000     0.441070250000     0.317843675000   
C      0.072919536667     0.101891650000     0.272205850000   
C      0.033587023333     0.099819750000     0.294039280000   
C      0.023340463333     0.059826760000     0.313783600000   
C      0.003588756667     0.140017060000     0.296204700000   
N      0.321075766667     0.255103680000     0.283015130000   
N      0.225206733333     0.255833030000     0.283607275000   
N      0.322992233333     0.188838465000     0.413373750000   
Cl     0.320050833333     0.294107950000     0.211459830000   
Cl     0.231704000000     0.230655790000     0.432670265000   
Cl     0.208637853333     0.176142705000     0.355674835000   
Cl     0.045960590000     0.216426970000     0.051895285000   
Cl     0.211022456667     0.234725400000     0.077000820000   
Cl     0.100000000000     0.151841460000     0.487702280000   
Cl     0.315192033333     0.063165830000     0.350420300000   
Cl     0.320296050000     0.464249750000     0.342857550000   
Cl     0.222834833333     0.040274870000     0.222293480000   
O      0.029825646667     0.173430560000     0.407732875000   
O      0.300354420000     0.170136110000     0.440964900000   
O      0.082547446667     0.202804100000     0.341049670000   
O      0.169934313333     0.268874885000     0.227459820000   
O      0.081954503333     0.277126000000     0.337991835000   
O      0.096717250000     0.269912350000     0.228957610000   
O      0.190067746667     0.333333335000     0.268187850000   
O      0.251714546667     0.378568350000     0.270779700000   
O      0.293409166667     0.132769450000     0.295586375000   
O      0.023293296667     0.179277270000     0.298101725000   
F      0.126047383333     0.368016300000     0.310374750000   
F      0.082941620000     0.140262530000     0.253292830000   
Zn     0.073547913333     0.290093450000     0.799621600000   
Zn     0.139206000000     0.219886140000     0.768802435000   
H      0.022630453333     0.214818000000     0.847155100000   
H      0.230065000000     0.281962400000     0.726663960000   
H      0.063565116667     0.296811135000     0.664686530000   
H      0.093501646667     0.170611000000     0.907286375000   
H      0.074607033333     0.313806950000     0.905020030000   
H      0.197990366667     0.243285970000     0.658795900000   
H      0.146518000000     0.280101950000     0.524842465000   
H      0.059189880000     0.297821750000     0.593663545000   
H      0.075967376667     0.314808400000     0.976516250000   
H      0.221916300000     0.455541850000     0.745551650000   
H      0.151801200000     0.099752195000     0.736802175000   
H      0.058227390000     0.408888600000     0.828882100000   
C      0.321895033333     0.223996200000     0.848157080000   
C      0.301167366667     0.216306950000     0.883670630000   
C      0.256922900000     0.230298935000     0.886754275000   
C      0.231076466667     0.229099035000     0.852658925000   
C      0.250374216667     0.242177635000     0.816415370000   
C      0.298449433333     0.241171090000     0.815396935000   
C      0.295627566667     0.269853385000     0.751758130000   
C      0.248308916667     0.269570620000     0.751885265000   
C      0.082793076667     0.240786550000     0.858064770000   
C      0.132713166667     0.268468600000     0.709556490000   
C      0.130827853333     0.269040450000     0.666854965000   
C      0.091954410000     0.284695500000     0.648082330000   
C      0.089396406667     0.285231680000     0.607616305000   
C      0.125110240000     0.268838675000     0.585276485000   
C      0.164885373333     0.254742025000     0.603833580000   
C      0.167602676667     0.254964600000     0.644580650000   
C      0.090134520000     0.202649220000     0.962818100000   
C      0.089280983333     0.202218575000     0.922170430000   
C      0.078991213333     0.282651425000     0.920795200000   
C      0.079687103333     0.283244220000     0.961462550000   
C      0.085101246667     0.243370050000     0.982631550000   
C      0.120393666667     0.266222600000     0.542673585000   
C      0.086821190000     0.245051620000     0.525345115000   
C      0.083735226667     0.242089240000     0.900880220000   
C      0.208775533333     0.372079700000     0.771231085000   
C      0.137506466667     0.407803800000     0.794733700000   
C      0.178511800000     0.411581875000     0.775522025000   
C      0.190369633333     0.453099800000     0.760389850000   
C      0.161423246667     0.490631880000     0.763410650000   
C      0.120260633333     0.486571750000     0.783050850000   
C      0.108668973333     0.445073425000     0.798792780000   
C      0.172364900000     0.032065260000     0.747047425000   
C      0.142639926667     0.068376450000     0.749848085000   
C      0.102097610000     0.064888290000     0.769674850000   
C      0.090703600000     0.023962425000     0.786930250000   
C      0.050162286667     0.020421895000     0.808069885000   
C      0.038751973333     0.477536950000     0.822425950000   
C      0.067982560000     0.441070250000     0.817843675000   
C      0.072919536667     0.101891650000     0.772205850000   
C      0.033587023333     0.099819750000     0.794039280000   
C      0.023340463333     0.059826760000     0.813783600000   
C      0.003588756667     0.140017060000     0.796204700000   
N      0.321075766667     0.255103680000     0.783015130000   
N      0.225206733333     0.255833030000     0.783607275000   
N      0.322992233333     0.188838465000     0.913373750000   
Cl     0.320050833333     0.294107950000     0.711459830000   
Cl     0.231704000000     0.230655790000     0.932670265000   
Cl     0.208637853333     0.176142705000     0.855674835000   
Cl     0.045960590000     0.216426970000     0.551895285000   
Cl     0.211022456667     0.234725400000     0.577000820000   
Cl     0.100000000000     0.151841460000     0.987702280000   
Cl     0.315192033333     0.063165830000     0.850420300000   
Cl     0.320296050000     0.464249750000     0.842857550000   
Cl     0.222834833333     0.040274870000     0.722293480000   
O      0.029825646667     0.173430560000     0.907732875000   
O      0.300354420000     0.170136110000     0.940964900000   
O      0.082547446667     0.202804100000     0.841049670000   
O      0.169934313333     0.268874885000     0.727459820000   
O      0.081954503333     0.277126000000     0.837991835000   
O      0.096717250000     0.269912350000     0.728957610000   
O      0.190067746667     0.333333335000     0.768187850000   
O      0.251714546667     0.378568350000     0.770779700000   
O      0.293409166667     0.132769450000     0.795586375000   
O      0.023293296667     0.179277270000     0.798101725000   
F      0.126047383333     0.368016300000     0.810374750000   
F      0.082941620000     0.140262530000     0.753292830000   
Zn     0.073547913333     0.790093450000     0.299621600000   
Zn     0.139206000000     0.719886140000     0.268802435000   
H      0.022630453333     0.714818000000     0.347155100000   
H      0.230065000000     0.781962400000     0.226663960000   
H      0.063565116667     0.796811135000     0.164686530000   
H      0.093501646667     0.670611000000     0.407286375000   
H      0.074607033333     0.813806950000     0.405020030000   
H      0.197990366667     0.743285970000     0.158795900000   
H      0.146518000000     0.780101950000     0.024842465000   
H      0.059189880000     0.797821750000     0.093663545000   
H      0.075967376667     0.814808400000     0.476516250000   
H      0.221916300000     0.955541850000     0.245551650000   
H      0.151801200000     0.599752195000     0.236802175000   
H      0.058227390000     0.908888600000     0.328882100000   
C      0.321895033333     0.723996200000     0.348157080000   
C      0.301167366667     0.716306950000     0.383670630000   
C      0.256922900000     0.730298935000     0.386754275000   
C      0.231076466667     0.729099035000     0.352658925000   
C      0.250374216667     0.742177635000     0.316415370000   
C      0.298449433333     0.741171090000     0.315396935000   
C      0.295627566667     0.769853385000     0.251758130000   
C      0.248308916667     0.769570620000     0.251885265000   
C      0.082793076667     0.740786550000     0.358064770000   
C      0.132713166667     0.768468600000     0.209556490000   
C      0.130827853333     0.769040450000     0.166854965000   
C      0.091954410000     0.784695500000     0.148082330000   
C      0.089396406667     0.785231680000     0.107616305000   
C      0.125110240000     0.768838675000     0.085276485000   
C      0.164885373333     0.754742025000     0.103833580000   
C      0.167602676667     0.754964600000     0.144580650000   
C      0.090134520000     0.702649220000     0.462818100000   
C      0.089280983333     0.702218575000     0.422170430000   
C      0.078991213333     0.782651425000     0.420795200000   
C      0.079687103333     0.783244220000     0.461462550000   
C      0.085101246667     0.743370050000     0.482631550000   
C      0.120393666667     0.766222600000     0.042673585000   
C      0.086821190000     0.745051620000     0.025345115000   
C      0.083735226667     0.742089240000     0.400880220000   
C      0.208775533333     0.872079700000     0.271231085000   
C      0.137506466667     0.907803800000     0.294733700000   
C      0.178511800000     0.911581875000     0.275522025000   
C      0.190369633333     0.953099800000     0.260389850000   
C      0.161423246667     0.990631880000     0.263410650000   
C      0.120260633333     0.986571750000     0.283050850000   
C      0.108668973333     0.945073425000     0.298792780000   
C      0.172364900000     0.532065260000     0.247047425000   
C      0.142639926667     0.568376450000     0.249848085000   
C      0.102097610000     0.564888290000     0.269674850000   
C      0.090703600000     0.523962425000     0.286930250000   
C      0.050162286667     0.520421895000     0.308069885000   
C      0.038751973333     0.977536950000     0.322425950000   
C      0.067982560000     0.941070250000     0.317843675000   
C      0.072919536667     0.601891650000     0.272205850000   
C      0.033587023333     0.599819750000     0.294039280000   
C      0.023340463333     0.559826760000     0.313783600000   
C      0.003588756667     0.640017060000     0.296204700000   
N      0.321075766667     0.755103680000     0.283015130000   
N      0.225206733333     0.755833030000     0.283607275000   
N      0.322992233333     0.688838465000     0.413373750000   
Cl     0.320050833333     0.794107950000     0.211459830000   
Cl     0.231704000000     0.730655790000     0.432670265000   
Cl     0.208637853333     0.676142705000     0.355674835000   
Cl     0.045960590000     0.716426970000     0.051895285000   
Cl     0.211022456667     0.734725400000     0.077000820000   
Cl     0.100000000000     0.651841460000     0.487702280000   
Cl     0.315192033333     0.563165830000     0.350420300000   
Cl     0.320296050000     0.964249750000     0.342857550000   
Cl     0.222834833333     0.540274870000     0.222293480000   
O      0.029825646667     0.673430560000     0.407732875000   
O      0.300354420000     0.670136110000     0.440964900000   
O      0.082547446667     0.702804100000     0.341049670000   
O      0.169934313333     0.768874885000     0.227459820000   
O      0.081954503333     0.777126000000     0.337991835000   
O      0.096717250000     0.769912350000     0.228957610000   
O      0.190067746667     0.833333335000     0.268187850000   
O      0.251714546667     0.878568350000     0.270779700000   
O      0.293409166667     0.632769450000     0.295586375000   
O      0.023293296667     0.679277270000     0.298101725000   
F      0.126047383333     0.868016300000     0.310374750000   
F      0.082941620000     0.640262530000     0.253292830000   
Zn     0.073547913333     0.790093450000     0.799621600000   
Zn     0.139206000000     0.719886140000     0.768802435000   
H      0.022630453333     0.714818000000     0.847155100000   
H      0.230065000000     0.781962400000     0.726663960000   
H      0.063565116667     0.796811135000     0.664686530000   
H      0.093501646667     0.670611000000     0.907286375000   
H      0.074607033333     0.813806950000     0.905020030000   
H      0.197990366667     0.743285970000     0.658795900000   
H      0.146518000000     0.780101950000     0.524842465000   
H      0.059189880000     0.797821750000     0.593663545000   
H      0.075967376667     0.814808400000     0.976516250000   
H      0.221916300000     0.955541850000     0.745551650000   
H      0.151801200000     0.599752195000     0.736802175000   
H      0.058227390000     0.908888600000     0.828882100000   
C      0.321895033333     0.723996200000     0.848157080000   
C      0.301167366667     0.716306950000     0.883670630000   
C      0.256922900000     0.730298935000     0.886754275000   
C      0.231076466667     0.729099035000     0.852658925000   
C      0.250374216667     0.742177635000     0.816415370000   
C      0.298449433333     0.741171090000     0.815396935000   
C      0.295627566667     0.769853385000     0.751758130000   
C      0.248308916667     0.769570620000     0.751885265000   
C      0.082793076667     0.740786550000     0.858064770000   
C      0.132713166667     0.768468600000     0.709556490000   
C      0.130827853333     0.769040450000     0.666854965000   
C      0.091954410000     0.784695500000     0.648082330000   
C      0.089396406667     0.785231680000     0.607616305000   
C      0.125110240000     0.768838675000     0.585276485000   
C      0.164885373333     0.754742025000     0.603833580000   
C      0.167602676667     0.754964600000     0.644580650000   
C      0.090134520000     0.702649220000     0.962818100000   
C      0.089280983333     0.702218575000     0.922170430000   
C      0.078991213333     0.782651425000     0.920795200000   
C      0.079687103333     0.783244220000     0.961462550000   
C      0.085101246667     0.743370050000     0.982631550000   
C      0.120393666667     0.766222600000     0.542673585000   
C      0.086821190000     0.745051620000     0.525345115000   
C      0.083735226667     0.742089240000     0.900880220000   
C      0.208775533333     0.872079700000     0.771231085000   
C      0.137506466667     0.907803800000     0.794733700000   
C      0.178511800000     0.911581875000     0.775522025000   
C      0.190369633333     0.953099800000     0.760389850000   
C      0.161423246667     0.990631880000     0.763410650000   
C      0.120260633333     0.986571750000     0.783050850000   
C      0.108668973333     0.945073425000     0.798792780000   
C      0.172364900000     0.532065260000     0.747047425000   
C      0.142639926667     0.568376450000     0.749848085000   
C      0.102097610000     0.564888290000     0.769674850000   
C      0.090703600000     0.523962425000     0.786930250000   
C      0.050162286667     0.520421895000     0.808069885000   
C      0.038751973333     0.977536950000     0.822425950000   
C      0.067982560000     0.941070250000     0.817843675000   
C      0.072919536667     0.601891650000     0.772205850000   
C      0.033587023333     0.599819750000     0.794039280000   
C      0.023340463333     0.559826760000     0.813783600000   
C      0.003588756667     0.640017060000     0.796204700000   
N      0.321075766667     0.755103680000     0.783015130000   
N      0.225206733333     0.755833030000     0.783607275000   
N      0.322992233333     0.688838465000     0.913373750000   
Cl     0.320050833333     0.794107950000     0.711459830000   
Cl     0.231704000000     0.730655790000     0.932670265000   
Cl     0.208637853333     0.676142705000     0.855674835000   
Cl     0.045960590000     0.716426970000     0.551895285000   
Cl     0.211022456667     0.734725400000     0.577000820000   
Cl     0.100000000000     0.651841460000     0.987702280000   
Cl     0.315192033333     0.563165830000     0.850420300000   
Cl     0.320296050000     0.964249750000     0.842857550000   
Cl     0.222834833333     0.540274870000     0.722293480000   
O      0.029825646667     0.673430560000     0.907732875000   
O      0.300354420000     0.670136110000     0.940964900000   
O      0.082547446667     0.702804100000     0.841049670000   
O      0.169934313333     0.768874885000     0.727459820000   
O      0.081954503333     0.777126000000     0.837991835000   
O      0.096717250000     0.769912350000     0.728957610000   
O      0.190067746667     0.833333335000     0.768187850000   
O      0.251714546667     0.878568350000     0.770779700000   
O      0.293409166667     0.632769450000     0.795586375000   
O      0.023293296667     0.679277270000     0.798101725000   
F      0.126047383333     0.868016300000     0.810374750000   
F      0.082941620000     0.640262530000     0.753292830000   
Zn     0.406881246667     0.290093450000     0.299621600000   
Zn     0.472539333333     0.219886140000     0.268802435000   
H      0.355963786667     0.214818000000     0.347155100000   
H      0.563398333333     0.281962400000     0.226663960000   
H      0.396898450000     0.296811135000     0.164686530000   
H      0.426834980000     0.170611000000     0.407286375000   
H      0.407940366667     0.313806950000     0.405020030000   
H      0.531323700000     0.243285970000     0.158795900000   
H      0.479851333333     0.280101950000     0.024842465000   
H      0.392523213333     0.297821750000     0.093663545000   
H      0.409300710000     0.314808400000     0.476516250000   
H      0.555249633333     0.455541850000     0.245551650000   
H      0.485134533333     0.099752195000     0.236802175000   
H      0.391560723333     0.408888600000     0.328882100000   
C      0.655228366667     0.223996200000     0.348157080000   
C      0.634500700000     0.216306950000     0.383670630000   
C      0.590256233333     0.230298935000     0.386754275000   
C      0.564409800000     0.229099035000     0.352658925000   
C      0.583707550000     0.242177635000     0.316415370000   
C      0.631782766667     0.241171090000     0.315396935000   
C      0.628960900000     0.269853385000     0.251758130000   
C      0.581642250000     0.269570620000     0.251885265000   
C      0.416126410000     0.240786550000     0.358064770000   
C      0.466046500000     0.268468600000     0.209556490000   
C      0.464161186667     0.269040450000     0.166854965000   
C      0.425287743333     0.284695500000     0.148082330000   
C      0.422729740000     0.285231680000     0.107616305000   
C      0.458443573333     0.268838675000     0.085276485000   
C      0.498218706667     0.254742025000     0.103833580000   
C      0.500936010000     0.254964600000     0.144580650000   
C      0.423467853333     0.202649220000     0.462818100000   
C      0.422614316667     0.202218575000     0.422170430000   
C      0.412324546667     0.282651425000     0.420795200000   
C      0.413020436667     0.283244220000     0.461462550000   
C      0.418434580000     0.243370050000     0.482631550000   
C      0.453727000000     0.266222600000     0.042673585000   
C      0.420154523333     0.245051620000     0.025345115000   
C      0.417068560000     0.242089240000     0.400880220000   
C      0.542108866667     0.372079700000     0.271231085000   
C      0.470839800000     0.407803800000     0.294733700000   
C      0.511845133333     0.411581875000     0.275522025000   
C      0.523702966667     0.453099800000     0.260389850000   
C      0.494756580000     0.490631880000     0.263410650000   
C      0.453593966667     0.486571750000     0.283050850000   
C      0.442002306667     0.445073425000     0.298792780000   
C      0.505698233333     0.032065260000     0.247047425000   
C      0.475973260000     0.068376450000     0.249848085000   
C      0.435430943333     0.064888290000     0.269674850000   
C      0.424036933333     0.023962425000     0.286930250000   
C      0.383495620000     0.020421895000     0.308069885000   
C      0.372085306667     0.477536950000     0.322425950000   
C      0.401315893333     0.441070250000     0.317843675000   
C      0.406252870000     0.101891650000     0.272205850000   
C      0.366920356667     0.099819750000     0.294039280000   
C      0.356673796667     0.059826760000     0.313783600000   
C      0.336922090000     0.140017060000     0.296204700000   
N      0.654409100000     0.255103680000     0.283015130000   
N      0.558540066667     0.255833030000     0.283607275000   
N      0.656325566667     0.188838465000     0.413373750000   
Cl     0.653384166667     0.294107950000     0.211459830000   
Cl     0.565037333333     0.230655790000     0.432670265000   
Cl     0.541971186667     0.176142705000     0.355674835000   
Cl     0.379293923333     0.216426970000     0.051895285000   
Cl     0.544355790000     0.234725400000     0.077000820000   
Cl     0.433333333333     0.151841460000     0.487702280000   
Cl     0.648525366667     0.063165830000     0.350420300000   
Cl     0.653629383333     0.464249750000     0.342857550000   
Cl     0.556168166667     0.040274870000     0.222293480000   
O      0.363158980000     0.173430560000     0.407732875000   
O      0.633687753333     0.170136110000     0.440964900000   
O      0.415880780000     0.202804100000     0.341049670000   
O      0.503267646667     0.268874885000     0.227459820000   
O      0.415287836667     0.277126000000     0.337991835000   
O      0.430050583333     0.269912350000     0.228957610000   
O      0.523401080000     0.333333335000     0.268187850000   
O      0.585047880000     0.378568350000     0.270779700000   
O      0.626742500000     0.132769450000     0.295586375000   
O      0.356626630000     0.179277270000     0.298101725000   
F      0.459380716667     0.368016300000     0.310374750000   
F      0.416274953333     0.140262530000     0.253292830000   
Zn     0.406881246667     0.290093450000     0.799621600000   
Zn     0.472539333333     0.219886140000     0.768802435000   
H      0.355963786667     0.214818000000     0.847155100000   
H      0.563398333333     0.281962400000     0.726663960000   
H      0.396898450000     0.296811135000     0.664686530000   
H      0.426834980000     0.170611000000     0.907286375000   
H      0.407940366667     0.313806950000     0.905020030000   
H      0.531323700000     0.243285970000     0.658795900000   
H      0.479851333333     0.280101950000     0.524842465000   
H      0.392523213333     0.297821750000     0.593663545000   
H      0.409300710000     0.314808400000     0.976516250000   
H      0.555249633333     0.455541850000     0.745551650000   
H      0.485134533333     0.099752195000     0.736802175000   
H      0.391560723333     0.408888600000     0.828882100000   
C      0.655228366667     0.223996200000     0.848157080000   
C      0.634500700000     0.216306950000     0.883670630000   
C      0.590256233333     0.230298935000     0.886754275000   
C      0.564409800000     0.229099035000     0.852658925000   
C      0.583707550000     0.242177635000     0.816415370000   
C      0.631782766667     0.241171090000     0.815396935000   
C      0.628960900000     0.269853385000     0.751758130000   
C      0.581642250000     0.269570620000     0.751885265000   
C      0.416126410000     0.240786550000     0.858064770000   
C      0.466046500000     0.268468600000     0.709556490000   
C      0.464161186667     0.269040450000     0.666854965000   
C      0.425287743333     0.284695500000     0.648082330000   
C      0.422729740000     0.285231680000     0.607616305000   
C      0.458443573333     0.268838675000     0.585276485000   
C      0.498218706667     0.254742025000     0.603833580000   
C      0.500936010000     0.254964600000     0.644580650000   
C      0.423467853333     0.202649220000     0.962818100000   
C      0.422614316667     0.202218575000     0.922170430000   
C      0.412324546667     0.282651425000     0.920795200000   
C      0.413020436667     0.283244220000     0.961462550000   
C      0.418434580000     0.243370050000     0.982631550000   
C      0.453727000000     0.266222600000     0.542673585000   
C      0.420154523333     0.245051620000     0.525345115000   
C      0.417068560000     0.242089240000     0.900880220000   
C      0.542108866667     0.372079700000     0.771231085000   
C      0.470839800000     0.407803800000     0.794733700000   
C      0.511845133333     0.411581875000     0.775522025000   
C      0.523702966667     0.453099800000     0.760389850000   
C      0.494756580000     0.490631880000     0.763410650000   
C      0.453593966667     0.486571750000     0.783050850000   
C      0.442002306667     0.445073425000     0.798792780000   
C      0.505698233333     0.032065260000     0.747047425000   
C      0.475973260000     0.068376450000     0.749848085000   
C      0.435430943333     0.064888290000     0.769674850000   
C      0.424036933333     0.023962425000     0.786930250000   
C      0.383495620000     0.020421895000     0.808069885000   
C      0.372085306667     0.477536950000     0.822425950000   
C      0.401315893333     0.441070250000     0.817843675000   
C      0.406252870000     0.101891650000     0.772205850000   
C      0.366920356667     0.099819750000     0.794039280000   
C      0.356673796667     0.059826760000     0.813783600000   
C      0.336922090000     0.140017060000     0.796204700000   
N      0.654409100000     0.255103680000     0.783015130000   
N      0.558540066667     0.255833030000     0.783607275000   
N      0.656325566667     0.188838465000     0.913373750000   
Cl     0.653384166667     0.294107950000     0.711459830000   
Cl     0.565037333333     0.230655790000     0.932670265000   
Cl     0.541971186667     0.176142705000     0.855674835000   
Cl     0.379293923333     0.216426970000     0.551895285000   
Cl     0.544355790000     0.234725400000     0.577000820000   
Cl     0.433333333333     0.151841460000     0.987702280000   
Cl     0.648525366667     0.063165830000     0.850420300000   
Cl     0.653629383333     0.464249750000     0.842857550000   
Cl     0.556168166667     0.040274870000     0.722293480000   
O      0.363158980000     0.173430560000     0.907732875000   
O      0.633687753333     0.170136110000     0.940964900000   
O      0.415880780000     0.202804100000     0.841049670000   
O      0.503267646667     0.268874885000     0.727459820000   