%BLOCK LATTICE_CART
ang    # angstrom units
  11.225370000000    0.000000000000     0.000000000000   
 -0.281484841529     12.527427989499    0.000000000000   
  0.029693331486    -0.914966579967     12.808326801874  
%ENDBLOCK LATTICE_CART

%BLOCK POSITIONS_FRAC
Zn     0.361886700000     0.406429050000     0.063678535000   
Zn     0.438534615000     0.474743950000     0.141542765000   
C      0.467360885000     0.480016650000     0.496131570000   
C      0.356597575000     0.418740500000     0.261472750000   
C      0.448532500000     0.457095550000     0.443235800000   
C      0.445856650000     0.382212875000     0.376890850000   
C      0.461611750000     0.403966300000     0.427036350000   
C      0.417706000000     0.487852400000     0.408615000000   
C      0.394879075000     0.464156550000     0.360635670000   
C      0.412209035000     0.411850350000     0.343100665000   
C      0.395036450000     0.390493720000     0.292442320000   
C      0.333257615000     0.466999235000     0.282602100000   
C      0.353727100000     0.490534700000     0.330384550000   
C      0.337898050000     0.396729450000     0.208535240000   
C      0.427783200000     0.308204620000     0.129669935000   
C      0.374953150000     0.071464530000     0.074858310000   
C      0.359099850000     0.291975530000     0.058013900000   
C      0.444117950000     0.087657945000     0.146162465000   
C      0.423403200000     0.363551825000     0.124624870000   
C      0.379309325000     0.016116340000     0.079909110000   
C      0.355352000000     0.347639000000     0.054689725000   
C      0.447867335000     0.031991505000     0.149466185000   
C      0.395494075000     0.271668900000     0.096005485000   
C      0.407474430000     0.107987560000     0.108363300000   
C      0.399726800000     0.213891120000     0.100364610000   
C      0.403255670000     0.165766535000     0.104004865000   
C      0.029147720000     0.395222575000     0.124701680000   
C      0.274118275000     0.486722320000     0.078583175000   
C      0.221324550000     0.454577120000     0.069253300000   
C      0.083374930000     0.426092980000     0.135486590000   
C      0.183693780000     0.449878400000     0.109244375000   
C      0.128938125000     0.419265030000     0.101945535000   
N      0.387328835000     0.382445300000     0.087699295000   
N      0.415588450000     0.497201200000     0.116674350000   
Cl     0.273894200000     0.496800720000     0.252268375000   
Cl     0.414003500000     0.057075380000     0.423164725000   
O      0.012269855000     0.014927505000     0.498272600000   
O      0.436797230000     0.464292675000     0.036594035000   
O      0.366744150000     0.414322885000     0.168057785000   
O      0.291506900000     0.363859030000     0.206246480000   
O      0.034145190000     0.351446850000     0.097919375000   
O      0.268741130000     0.029909850000     0.106278815000   
O      0.479091020000     0.414604800000     0.136640415000   
O      0.323795380000     0.466751850000     0.067557700000   
F      0.414994030000     0.342270285000     0.273255380000   
F      0.461968630000     0.331409800000     0.362373920000   
F      0.329028725000     0.037208795000     0.348568950000   
F      0.491822780000     0.373581500000     0.459269675000   
F      0.463478250000     0.290470330000     0.167066680000   
F      0.339082850000     0.089219850000     0.037602790000   
F      0.327316730000     0.258196400000     0.024395025000   
F      0.476163270000     0.121417210000     0.179603235000   
F      0.455575950000     0.398397050000     0.156728950000   
F      0.346938000000     0.481284550000     0.047952460000   
F      0.319583200000     0.366803150000     0.018245805000   
F      0.484003400000     0.012813170000     0.185626580000   
F      0.124164430000     0.384804000000     0.058541460000   
F      0.196994440000     0.472711325000     0.157793880000   
F      0.085529765000     0.463348030000     0.176707900000   
F      0.212025950000     0.429640150000     0.021029255000   
Zn     0.361886700000     0.406429050000     0.563678535000   
Zn     0.438534615000     0.474743950000     0.641542765000   
C      0.467360885000     0.480016650000     0.996131570000   
C      0.356597575000     0.418740500000     0.761472750000   
C      0.448532500000     0.457095550000     0.943235800000   
C      0.445856650000     0.382212875000     0.876890850000   
C      0.461611750000     0.403966300000     0.927036350000   
C      0.417706000000     0.487852400000     0.908615000000   
C      0.394879075000     0.464156550000     0.860635670000   
C      0.412209035000     0.411850350000     0.843100665000   
C      0.395036450000     0.390493720000     0.792442320000   
C      0.333257615000     0.466999235000     0.782602100000   
C      0.353727100000     0.490534700000     0.830384550000   
C      0.337898050000     0.396729450000     0.708535240000   
C      0.427783200000     0.308204620000     0.629669935000   
C      0.374953150000     0.071464530000     0.574858310000   
C      0.359099850000     0.291975530000     0.558013900000   
C      0.444117950000     0.087657945000     0.646162465000   
C      0.423403200000     0.363551825000     0.624624870000   
C      0.379309325000     0.016116340000     0.579909110000   
C      0.355352000000     0.347639000000     0.554689725000   
C      0.447867335000     0.031991505000     0.649466185000   
C      0.395494075000     0.271668900000     0.596005485000   
C      0.407474430000     0.107987560000     0.608363300000   
C      0.399726800000     0.213891120000     0.600364610000   
C      0.403255670000     0.165766535000     0.604004865000   
C      0.029147720000     0.395222575000     0.624701680000   
C      0.274118275000     0.486722320000     0.578583175000   
C      0.221324550000     0.454577120000     0.569253300000   
C      0.083374930000     0.426092980000     0.635486590000   
C      0.183693780000     0.449878400000     0.609244375000   
C      0.128938125000     0.419265030000     0.601945535000   
N      0.387328835000     0.382445300000     0.587699295000   
N      0.415588450000     0.497201200000     0.616674350000   
Cl     0.273894200000     0.496800720000     0.752268375000   
Cl     0.414003500000     0.057075380000     0.923164725000   
O      0.012269855000     0.014927505000     0.998272600000   
O      0.436797230000     0.464292675000     0.536594035000   
O      0.366744150000     0.414322885000     0.668057785000   
O      0.291506900000     0.363859030000     0.706246480000   
O      0.034145190000     0.351446850000     0.597919375000   
O      0.268741130000     0.029909850000     0.606278815000   
O      0.479091020000     0.414604800000     0.636640415000   
O      0.323795380000     0.466751850000     0.567557700000   
F      0.414994030000     0.342270285000     0.773255380000   
F      0.461968630000     0.331409800000     0.862373920000   
F      0.329028725000     0.037208795000     0.848568950000   
F      0.491822780000     0.373581500000     0.959269675000   
F      0.463478250000     0.290470330000     0.667066680000   
F      0.339082850000     0.089219850000     0.537602790000   
F      0.327316730000     0.258196400000     0.524395025000   
F      0.476163270000     0.121417210000     0.679603235000   
F      0.455575950000     0.398397050000     0.656728950000   
F      0.346938000000     0.481284550000     0.547952460000   
F      0.319583200000     0.366803150000     0.518245805000   
F      0.484003400000     0.012813170000     0.685626580000   
F      0.124164430000     0.384804000000     0.558541460000   
F      0.196994440000     0.472711325000     0.657793880000   
F      0.085529765000     0.463348030000     0.676707900000   
F      0.212025950000     0.429640150000     0.521029255000   
Zn     0.361886700000     0.906429050000     0.063678535000   
Zn     0.438534615000     0.974743950000     0.141542765000   
C      0.467360885000     0.980016650000     0.496131570000   
C      0.356597575000     0.918740500000     0.261472750000   
C      0.448532500000     0.957095550000     0.443235800000   
C      0.445856650000     0.882212875000     0.376890850000   
C      0.461611750000     0.903966300000     0.427036350000   
C      0.417706000000     0.987852400000     0.408615000000   
C      0.394879075000     0.964156550000     0.360635670000   
C      0.412209035000     0.911850350000     0.343100665000   
C      0.395036450000     0.890493720000     0.292442320000   
C      0.333257615000     0.966999235000     0.282602100000   
C      0.353727100000     0.990534700000     0.330384550000   
C      0.337898050000     0.896729450000     0.208535240000   
C      0.427783200000     0.808204620000     0.129669935000   
C      0.374953150000     0.571464530000     0.074858310000   
C      0.359099850000     0.791975530000     0.058013900000   
C      0.444117950000     0.587657945000     0.146162465000   
C      0.423403200000     0.863551825000     0.124624870000   
C      0.379309325000     0.516116340000     0.079909110000   
C      0.355352000000     0.847639000000     0.054689725000   
C      0.447867335000     0.531991505000     0.149466185000   
C      0.395494075000     0.771668900000     0.096005485000   
C      0.407474430000     0.607987560000     0.108363300000   
C      0.399726800000     0.713891120000     0.100364610000   
C      0.403255670000     0.665766535000     0.104004865000   
C      0.029147720000     0.895222575000     0.124701680000   
C      0.274118275000     0.986722320000     0.078583175000   
C      0.221324550000     0.954577120000     0.069253300000   
C      0.083374930000     0.926092980000     0.135486590000   
C      0.183693780000     0.949878400000     0.109244375000   
C      0.128938125000     0.919265030000     0.101945535000   
N      0.387328835000     0.882445300000     0.087699295000   
N      0.415588450000     0.997201200000     0.116674350000   
Cl     0.273894200000     0.996800720000     0.252268375000   
Cl     0.414003500000     0.557075380000     0.423164725000   
O      0.012269855000     0.514927505000     0.498272600000   
O      0.436797230000     0.964292675000     0.036594035000   
O      0.366744150000     0.914322885000     0.168057785000   
O      0.291506900000     0.863859030000     0.206246480000   
O      0.034145190000     0.851446850000     0.097919375000   
O      0.268741130000     0.529909850000     0.106278815000   
O      0.479091020000     0.914604800000     0.136640415000   
O      0.323795380000     0.966751850000     0.067557700000   
F      0.414994030000     0.842270285000     0.273255380000   
F      0.461968630000     0.831409800000     0.362373920000   
F      0.329028725000     0.537208795000     0.348568950000   
F      0.491822780000     0.873581500000     0.459269675000   
F      0.463478250000     0.790470330000     0.167066680000   
F      0.339082850000     0.589219850000     0.037602790000   
F      0.327316730000     0.758196400000     0.024395025000   
F      0.476163270000     0.621417210000     0.179603235000   
F      0.455575950000     0.898397050000     0.156728950000   
F      0.346938000000     0.981284550000     0.047952460000   
F      0.319583200000     0.866803150000     0.018245805000   
F      0.484003400000     0.512813170000     0.185626580000   
F      0.124164430000     0.884804000000     0.058541460000   
F      0.196994440000     0.972711325000     0.157793880000   
F      0.085529765000     0.963348030000     0.176707900000   
F      0.212025950000     0.929640150000     0.021029255000   
Zn     0.361886700000     0.906429050000     0.563678535000   
Zn     0.438534615000     0.974743950000     0.641542765000   
C      0.467360885000     0.980016650000     0.996131570000   
C      0.356597575000     0.918740500000     0.761472750000   
C      0.448532500000     0.957095550000     0.943235800000   
C      0.445856650000     0.882212875000     0.876890850000   
C      0.461611750000     0.903966300000     0.927036350000   
C      0.417706000000     0.987852400000     0.908615000000   
C      0.394879075000     0.964156550000     0.860635670000   
C      0.412209035000     0.911850350000     0.843100665000   
C      0.395036450000     0.890493720000     0.792442320000   
C      0.333257615000     0.966999235000     0.782602100000   
C      0.353727100000     0.990534700000     0.830384550000   
C      0.337898050000     0.896729450000     0.708535240000   
C      0.427783200000     0.808204620000     0.629669935000   
C      0.374953150000     0.571464530000     0.574858310000   
C      0.359099850000     0.791975530000     0.558013900000   
C      0.444117950000     0.587657945000     0.646162465000   
C      0.423403200000     0.863551825000     0.624624870000   
C      0.379309325000     0.516116340000     0.579909110000   
C      0.355352000000     0.847639000000     0.554689725000   
C      0.447867335000     0.531991505000     0.649466185000   
C      0.395494075000     0.771668900000     0.596005485000   
C      0.407474430000     0.607987560000     0.608363300000   
C      0.399726800000     0.713891120000     0.600364610000   
C      0.403255670000     0.665766535000     0.604004865000   
C      0.029147720000     0.895222575000     0.624701680000   
C      0.274118275000     0.986722320000     0.578583175000   
C      0.221324550000     0.954577120000     0.569253300000   
C      0.083374930000     0.926092980000     0.635486590000   
C      0.183693780000     0.949878400000     0.609244375000   
C      0.128938125000     0.919265030000     0.601945535000   
N      0.387328835000     0.882445300000     0.587699295000   
N      0.415588450000     0.997201200000     0.616674350000   
Cl     0.273894200000     0.996800720000     0.752268375000   
Cl     0.414003500000     0.557075380000     0.923164725000   
O      0.012269855000     0.514927505000     0.998272600000   
O      0.436797230000     0.964292675000     0.536594035000   
O      0.366744150000     0.914322885000     0.668057785000   
O      0.291506900000     0.863859030000     0.706246480000   
O      0.034145190000     0.851446850000     0.597919375000   
O      0.268741130000     0.529909850000     0.606278815000   
O      0.479091020000     0.914604800000     0.636640415000   
O      0.323795380000     0.966751850000     0.567557700000   
F      0.414994030000     0.842270285000     0.773255380000   
F      0.461968630000     0.831409800000     0.862373920000   
F      0.329028725000     0.537208795000     0.848568950000   
F      0.491822780000     0.873581500000     0.959269675000   
F      0.463478250000     0.790470330000     0.667066680000   
F      0.339082850000     0.589219850000     0.537602790000   
F      0.327316730000     0.758196400000     0.524395025000   
F      0.476163270000     0.621417210000     0.679603235000   
F      0.455575950000     0.898397050000     0.656728950000   
F      0.346938000000     0.981284550000     0.547952460000   
F      0.319583200000     0.866803150000     0.518245805000   
F      0.484003400000     0.512813170000     0.685626580000   
F      0.124164430000     0.884804000000     0.558541460000   
F      0.196994440000     0.972711325000     0.657793880000   
F      0.085529765000     0.963348030000     0.676707900000   
F      0.212025950000     0.929640150000     0.521029255000   
Zn     0.861886700000     0.406429050000     0.063678535000   
Zn     0.938534615000     0.474743950000     0.141542765000   
C      0.967360885000     0.480016650000     0.496131570000   
C      0.856597575000     0.418740500000     0.261472750000   
C      0.948532500000     0.457095550000     0.443235800000   
C      0.945856650000     0.382212875000     0.376890850000   
C      0.961611750000     0.403966300000     0.427036350000   
C      0.917706000000     0.487852400000     0.408615000000   
C      0.894879075000     0.464156550000     0.360635670000   
C      0.912209035000     0.411850350000     0.343100665000   
C      0.895036450000     0.390493720000     0.292442320000   
C      0.833257615000     0.466999235000     0.282602100000   
C      0.853727100000     0.490534700000     0.330384550000   
C      0.837898050000     0.396729450000     0.208535240000   
C      0.927783200000     0.308204620000     0.129669935000   
C      0.874953150000     0.071464530000     0.074858310000   
C      0.859099850000     0.291975530000     0.058013900000   
C      0.944117950000     0.087657945000     0.146162465000   
C      0.923403200000     0.363551825000     0.124624870000   
C      0.879309325000     0.016116340000     0.079909110000   
C      0.855352000000     0.347639000000     0.054689725000   
C      0.947867335000     0.031991505000     0.149466185000   
C      0.895494075000     0.271668900000     0.096005485000   
C      0.907474430000     0.107987560000     0.108363300000   
C      0.899726800000     0.213891120000     0.100364610000   
C      0.903255670000     0.165766535000     0.104004865000   
C      0.529147720000     0.395222575000     0.124701680000   
C      0.774118275000     0.486722320000     0.078583175000   
C      0.721324550000     0.454577120000     0.069253300000   
C      0.583374930000     0.426092980000     0.135486590000   
C      0.683693780000     0.449878400000     0.109244375000   
C      0.628938125000     0.419265030000     0.101945535000   
N      0.887328835000     0.382445300000     0.087699295000   
N      0.915588450000     0.497201200000     0.116674350000   
Cl     0.773894200000     0.496800720000     0.252268375000   
Cl     0.914003500000     0.057075380000     0.423164725000   
O      0.512269855000     0.014927505000     0.498272600000   
O      0.936797230000     0.464292675000     0.036594035000   
O      0.866744150000     0.414322885000     0.168057785000   
O      0.791506900000     0.363859030000     0.206246480000   
O      0.534145190000     0.351446850000     0.097919375000   
O      0.768741130000     0.029909850000     0.106278815000   
O      0.979091020000     0.414604800000     0.136640415000   
O      0.823795380000     0.466751850000     0.067557700000   
F      0.914994030000     0.342270285000     0.273255380000   
F      0.961968630000     0.331409800000     0.362373920000   
F      0.829028725000     0.037208795000     0.348568950000   
F      0.991822780000     0.373581500000     0.459269675000   
F      0.963478250000     0.290470330000     0.167066680000   
F      0.839082850000     0.089219850000     0.037602790000   
F      0.827316730000     0.258196400000     0.024395025000   
F      0.976163270000     0.121417210000     0.179603235000   
F      0.955575950000     0.398397050000     0.156728950000   
F      0.846938000000     0.481284550000     0.047952460000   
F      0.819583200000     0.366803150000     0.018245805000   
F      0.984003400000     0.012813170000     0.185626580000   
F      0.624164430000     0.384804000000     0.058541460000   
F      0.696994440000     0.472711325000     0.157793880000   
F      0.585529765000     0.463348030000     0.176707900000   
F      0.712025950000     0.429640150000     0.021029255000   
Zn     0.861886700000     0.406429050000     0.563678535000   
Zn     0.938534615000     0.474743950000     0.641542765000   
C      0.967360885000     0.480016650000     0.996131570000   
C      0.856597575000     0.418740500000     0.761472750000   
C      0.948532500000     0.457095550000     0.943235800000   
C      0.945856650000     0.382212875000     0.876890850000   
C      0.961611750000     0.403966300000     0.927036350000   
C      0.917706000000     0.487852400000     0.908615000000   
C      0.894879075000     0.464156550000     0.860635670000   
C      0.912209035000     0.411850350000     0.843100665000   
C      0.895036450000     0.390493720000     0.792442320000   
C      0.833257615000     0.466999235000     0.782602100000   
C      0.853727100000     0.490534700000     0.830384550000   
C      0.837898050000     0.396729450000     0.708535240000   
C      0.927783200000     0.308204620000     0.629669935000   
C      0.874953150000     0.071464530000     0.574858310000   
C      0.859099850000     0.291975530000     0.558013900000   
C      0.944117950000     0.087657945000     0.646162465000   
C      0.923403200000     0.363551825000     0.624624870000   
C      0.879309325000     0.016116340000     0.579909110000   
C      0.855352000000     0.347639000000     0.554689725000   
C      0.947867335000     0.031991505000     0.649466185000   
C      0.895494075000     0.271668900000     0.596005485000   
C      0.907474430000     0.107987560000     0.608363300000   
C      0.899726800000     0.213891120000     0.600364610000   
C      0.903255670000     0.165766535000     0.604004865000   
C      0.529147720000     0.395222575000     0.624701680000   
C      0.774118275000     0.486722320000     0.578583175000   
C      0.721324550000     0.454577120000     0.569253300000   
C      0.583374930000     0.426092980000     0.635486590000   
C      0.683693780000     0.449878400000     0.609244375000   
C      0.628938125000     0.419265030000     0.601945535000   
N      0.887328835000     0.382445300000     0.587699295000   
N      0.915588450000     0.497201200000     0.616674350000   
Cl     0.773894200000     0.496800720000     0.752268375000   
Cl     0.914003500000     0.057075380000     0.923164725000   
O      0.512269855000     0.014927505000     0.998272600000   
O      0.936797230000     0.464292675000     0.536594035000   
O      0.866744150000     0.414322885000     0.668057785000   
O      0.791506900000     0.363859030000     0.706246480000   
O      0.534145190000     0.351446850000     0.597919375000   
O      0.768741130000     0.029909850000     0.606278815000   
O      0.979091020000     0.414604800000     0.636640415000   
O      0.823795380000     0.466751850000     0.567557700000   
F      0.914994030000     0.342270285000     0.773255380000   
F      0.961968630000     0.331409800000     0.862373920000   
F      0.829028725000     0.037208795000     0.848568950000   
F      0.991822780000     0.373581500000     0.959269675000   
F      0.963478250000     0.290470330000     0.667066680000   
F      0.839082850000     0.089219850000     0.537602790000   
F      0.827316730000     0.258196400000     0.524395025000   
F      0.976163270000     0.121417210000     0.679603235000   
F      0.955575950000     0.398397050000     0.656728950000   
F      0.846938000000     0.481284550000     0.547952460000   
F      0.819583200000     0.366803150000     0.518245805000   
F      0.984003400000     0.012813170000     0.685626580000   
F      0.624164430000     0.384804000000     0.558541460000   
F      0.696994440000     0.472711325000     0.657793880000   
F      0.585529765000     0.463348030000     0.676707900000   
F      0.712025950000     0.429640150000     0.521029255000   
Zn     0.861886700000     0.906429050000     0.063678535000   
Zn     0.938534615000     0.974743950000     0.141542765000   
C      0.967360885000     0.980016650000     0.496131570000   
C      0.856597575000     0.918740500000     0.261472750000   
C      0.948532500000     0.957095550000     0.443235800000   
C      0.945856650000     0.882212875000     0.376890850000   
C      0.961611750000     0.903966300000     0.427036350000   
C      0.917706000000     0.987852400000     0.408615000000   
C      0.894879075000     0.964156550000     0.360635670000   
C      0.912209035000     0.911850350000     0.343100665000   
C      0.895036450000     0.890493720000     0.292442320000   
C      0.833257615000     0.966999235000     0.282602100000   
C      0.853727100000     0.990534700000     0.330384550000   
C      0.837898050000     0.896729450000     0.208535240000   
C      0.927783200000     0.808204620000     0.129669935000   
C      0.874953150000     0.571464530000     0.074858310000   
C      0.859099850000     0.791975530000     0.058013900000   
C      0.944117950000     0.587657945000     0.146162465000   
C      0.923403200000     0.863551825000     0.124624870000   
C      0.879309325000     0.516116340000     0.079909110000   
C      0.855352000000     0.847639000000     0.054689725000   
C      0.947867335000     0.531991505000     0.149466185000   
C      0.895494075000     0.771668900000     0.096005485000   
C      0.907474430000     0.607987560000     0.108363300000   
C      0.899726800000     0.713891120000     0.100364610000   
C      0.903255670000     0.665766535000     0.104004865000   
C      0.529147720000     0.895222575000     0.124701680000   
C      0.774118275000     0.986722320000     0.078583175000   
C      0.721324550000     0.954577120000     0.069253300000   
C      0.583374930000     0.926092980000     0.135486590000   
C      0.683693780000     0.949878400000     0.109244375000   
C      0.628938125000     0.919265030000     0.101945535000   
N      0.887328835000     0.882445300000     0.087699295000   
N      0.915588450000     0.997201200000     0.116674350000   
Cl     0.773894200000     0.996800720000     0.252268375000   
Cl     0.914003500000     0.557075380000     0.423164725000   
O      0.512269855000     0.514927505000     0.498272600000   
O      0.936797230000     0.964292675000     0.036594035000   
O      0.866744150000     0.914322885000     0.168057785000   
O      0.791506900000     0.863859030000     0.206246480000   
O      0.534145190000     0.851446850000     0.097919375000   
O      0.768741130000     0.529909850000     0.106278815000   
O      0.979091020000     0.914604800000     0.136640415000   
O      0.823795380000     0.966751850000     0.067557700000   
F      0.914994030000     0.842270285000     0.273255380000   
F      0.961968630000     0.831409800000     0.362373920000   
F      0.829028725000     0.537208795000     0.348568950000   
F      0.991822780000     0.873581500000     0.459269675000   
F      0.963478250000     0.790470330000     0.167066680000   
F      0.839082850000     0.589219850000     0.037602790000   
F      0.827316730000     0.758196400000     0.024395025000   
F      0.976163270000     0.621417210000     0.179603235000   
F      0.955575950000     0.898397050000     0.156728950000   
F      0.846938000000     0.981284550000     0.047952460000   
F      0.819583200000     0.866803150000     0.018245805000   
F      0.984003400000     0.512813170000     0.185626580000   
F      0.624164430000     0.884804000000     0.058541460000   
F      0.696994440000     0.972711325000     0.157793880000   
F      0.585529765000     0.963348030000     0.176707900000   
F      0.712025950000     0.929640150000     0.021029255000   
Zn     0.861886700000     0.906429050000     0.563678535000   
Zn     0.938534615000     0.974743950000     0.641542765000   
C      0.967360885000     0.980016650000     0.996131570000   
C      0.856597575000     0.918740500000     0.761472750000   
C      0.948532500000     0.957095550000     0.943235800000   
C      0.945856650000     0.882212875000     0.876890850000   
C      0.961611750000     0.903966300000     0.927036350000   
C      0.917706000000     0.987852400000     0.908615000000   
C      0.894879075000     0.964156550000     0.860635670000   
C      0.912209035000     0.911850350000     0.843100665000   
C      0.895036450000     0.890493720000     0.792442320000   
C      0.833257615000     0.966999235000     0.782602100000   
C      0.853727100000     0.990534700000     0.830384550000   
C      0.837898050000     0.896729450000     0.708535240000   
C      0.927783200000     0.808204620000     0.629669935000   
C      0.874953150000     0.571464530000     0.574858310000   
C      0.859099850000     0.791975530000     0.558013900000   
C      0.944117950000     0.587657945000     0.646162465000   
C      0.923403200000     0.863551825000     0.624624870000   
C      0.879309325000     0.516116340000     0.579909110000   
C      0.855352000000     0.847639000000     0.554689725000   
C      0.947867335000     0.531991505000     0.649466185000   
C      0.895494075000     0.771668900000     0.596005485000   
C      0.907474430000     0.607987560000     0.608363300000   
C      0.899726800000     0.713891120000     0.600364610000   
C      0.903255670000     0.665766535000     0.604004865000   
C      0.529147720000     0.895222575000     0.624701680000   
C      0.774118275000     0.986722320000     0.578583175000   
C      0.721324550000     0.954577120000     0.569253300000   
C      0.583374930000     0.926092980000     0.635486590000   
C      0.683693780000     0.949878400000     0.609244375000   
C      0.628938125000     0.919265030000     0.601945535000   
N      0.887328835000     0.882445300000     0.587699295000   
N      0.915588450000     0.997201200000     0.616674350000   
Cl     0.773894200000     0.996800720000     0.752268375000   
Cl     0.914003500000     0.557075380000     0.923164725000   
O      0.512269855000     0.514927505000     0.998272600000   
O      0.936797230000     0.964292675000     0.536594035000   
O      0.866744150000     0.914322885000     0.668057785000   
O      0.791506900000     0.863859030000     0.706246480000   
O      0.534145190000     0.851446850000     0.597919375000   
O      0.768741130000     0.529909850000     0.606278815000   
O      0.979091020000     0.914604800000     0.636640415000   
O      0.823795380000     0.966751850000     0.567557700000   
F      0.914994030000     0.842270285000     0.773255380000   
F      0.961968630000     0.831409800000     0.862373920000   
F      0.829028725000     0.537208795000     0.848568950000   
F      0.991822780000     0.873581500000     0.959269675000   
F      0.963478250000     0.790470330000     0.667066680000   
F      0.839082850000     0.589219850000     0.537602790000   
F      0.827316730000     0.758196400000     0.524395025000   
F      0.976163270000     0.621417210000     0.679603235000   