%BLOCK LATTICE_CART
ang    # angstrom units
  22.021910000000    0.000000000000     0.000000000000   
 -2.326753755487     22.008066354856    0.000000000000   
 -9.054754132202    -10.467485691588    22.858467222939  
%ENDBLOCK LATTICE_CART

%BLOCK POSITIONS_FRAC
Zn     0.302668870000     0.257051150000     0.262663550000   
Zn     0.331437230000     0.311290475000     0.247813210000   
Zn     0.084406240000     0.039979985000     0.288494200000   
Zn     0.050990040000     0.029039990000     0.222318440000   
Zn     0.344198525000     0.017065295000     0.260820800000   
Zn     0.290381225000     0.051938565000     0.251218975000   
H      0.448300125000     0.111187665000     0.238431800000   
H      0.415478230000     0.078365650000     0.206733880000   
H      0.407597400000     0.118084005000     0.223779960000   
H      0.383340500000     0.081371360000     0.241455550000   
H      0.419728100000     0.110140810000     0.269249765000   
H      0.421671700000     0.008892360000     0.174317760000   
H      0.466170370000     0.014732875000     0.190968150000   
H      0.440325380000     0.476652535000     0.159505425000   
H      0.457295270000     0.466947975000     0.203314950000   
H      0.414039670000     0.460015800000     0.188769890000   
H      0.450575900000     0.460983650000     0.267927550000   
H      0.447526635000     0.441482450000     0.231092990000   
H      0.481555150000     0.439942775000     0.260417550000   
H      0.499847025000     0.483892250000     0.244246870000   
H      0.006826045000     0.497752000000     0.281254085000   
H      0.464885900000     0.096768805000     0.341560400000   
H      0.426497800000     0.070000925000     0.311846375000   
H      0.447369650000     0.147147640000     0.337498050000   
H      0.408011600000     0.120778980000     0.308429000000   
H      0.394591420000     0.099152320000     0.341361970000   
H      0.403297050000     0.144144935000     0.356009485000   
H      0.434364615000     0.124677375000     0.371006130000   
H      0.384029950000     0.329127075000     0.463791000000   
H      0.001888035000     0.489944950000     0.047782490000   
H      0.488679900000     0.473478900000     0.496023500000   
H      0.397248270000     0.345590150000     0.015551245000   
H      0.449032635000     0.485454620000     0.115873925000   
H      0.436823650000     0.333573430000     0.395685150000   
H      0.492450030000     0.402846900000     0.113341845000   
H      0.393539700000     0.416266100000     0.398247270000   
H      0.408127070000     0.494139150000     0.146018400000   
H      0.394891380000     0.045556130000     0.172774525000   
H      0.440000980000     0.092913270000     0.214734240000   
H      0.498697520000     0.089037655000     0.229665860000   
H      0.012489735000     0.038005115000     0.202997565000   
H      0.477703750000     0.324757365000     0.365603650000   
H      0.490853130000     0.273255080000     0.338885900000   
H      0.445708125000     0.225963535000     0.296897470000   
H      0.387059750000     0.229986430000     0.281887750000   
H      0.373348800000     0.281105725000     0.308517070000   
H      0.468443900000     0.399457125000     0.180748600000   
H      0.494979620000     0.364301620000     0.204009265000   
H      0.050187230000     0.356078475000     0.205273500000   
H      0.078890025000     0.382991650000     0.182963580000   
H      0.052930595000     0.418554150000     0.159877865000   
H      0.417538200000     0.419543625000     0.330775915000   
H      0.391114850000     0.454822420000     0.307607400000   
H      0.336006700000     0.463264465000     0.306484950000   
H      0.307287575000     0.436432900000     0.328821900000   
H      0.333126800000     0.400743050000     0.351813600000   
H      0.265934000000     0.464642700000     0.309918950000   
H      0.294352250000     0.439033800000     0.312477100000   
H      0.220044650000     0.415499180000     0.269642400000   
H      0.248802215000     0.389308630000     0.271532120000   
H      0.257747830000     0.401413300000     0.322966070000   
H      0.214139820000     0.384414600000     0.298874080000   
H      0.229692550000     0.428565175000     0.321923700000   
H      0.260266650000     0.436278520000     0.205130235000   
H      0.265129600000     0.397339150000     0.183208660000   
H      0.223966100000     0.403033825000     0.178490280000   
H      0.235292210000     0.369490475000     0.206851035000   
H      0.234760610000     0.409432650000     0.228953550000   
H      0.355096600000     0.351125420000     0.294985680000   
H      0.317549885000     0.324942170000     0.264064430000   
H      0.356195120000     0.312914220000     0.268495975000   
H      0.344740480000     0.334699900000     0.230811750000   
H      0.379671725000     0.361390085000     0.261721500000   
H      0.416476700000     0.408769875000     0.275785565000   
H      0.409327550000     0.449632400000     0.284096865000   
H      0.438782700000     0.441042065000     0.311972400000   
H      0.390896765000     0.440245865000     0.323612100000   
H      0.390967900000     0.398862350000     0.307528675000   
H      0.134309750000     0.205820200000     0.484035100000   
H      0.249267280000     0.110868440000     0.025084215000   
H      0.234041650000     0.099993570000     0.473925950000   
H      0.149528100000     0.216684865000     0.035190565000   
H      0.274459035000     0.203014100000     0.121899075000   
H      0.109100385000     0.113736785000     0.387230635000   
H      0.173120720000     0.159375300000     0.102326065000   
H      0.210466650000     0.157240870000     0.406780035000   
H      0.303939730000     0.262207120000     0.171863065000   
H      0.363222550000     0.287126500000     0.205997885000   
H      0.394050775000     0.256577000000     0.232701390000   
H      0.365598470000     0.200578050000     0.224822685000   
H      0.306458500000     0.175075980000     0.190547885000   
H      0.079506345000     0.054610970000     0.337348350000   
H      0.020180775000     0.029809790000     0.303292720000   
H      0.489430515000     0.060379415000     0.276571400000   
H      0.018000315000     0.116277950000     0.284342100000   
H      0.077186740000     0.141666950000     0.318539100000   
H      0.186571150000     0.219762745000     0.186407050000   
H      0.142110735000     0.204748825000     0.201480760000   
H      0.109639000000     0.145879650000     0.180093840000   
H      0.121566150000     0.101833195000     0.143276110000   
H      0.166191000000     0.116285540000     0.128149615000   
H      0.196902290000     0.096835590000     0.322632850000   
H      0.241443700000     0.111766810000     0.307612000000   
H      0.274101400000     0.170586960000     0.329110250000   
H      0.262264820000     0.214660020000     0.365963200000   
H      0.217558325000     0.200298070000     0.381038150000   
H      0.354226380000     0.101044490000     0.307599750000   
H      0.325660950000     0.126513540000     0.305127100000   
H      0.402455250000     0.150975240000     0.329513200000   
H      0.373705650000     0.177065985000     0.326541500000   
H      0.353363275000     0.161900150000     0.359668550000   
H      0.397911950000     0.179305100000     0.376675130000   
H      0.381332220000     0.134824740000     0.362394650000   
H      0.383937250000     0.135819675000     0.233794720000   
H      0.382038830000     0.175530715000     0.232597710000   
H      0.421198100000     0.169450285000     0.252659800000   
H      0.400984375000     0.200592200000     0.288931815000   
H      0.398969300000     0.159973890000     0.286850100000   
H      0.267854700000     0.214988410000     0.297765165000   
H      0.307902130000     0.241971225000     0.309739975000   
H      0.270611100000     0.254221350000     0.294605700000   
H      0.292397800000     0.235221820000     0.256628425000   
H      0.254776270000     0.207691050000     0.246104660000   
H      0.221385050000     0.161085575000     0.207883880000   
H      0.228996860000     0.120370260000     0.197423160000   
H      0.194357740000     0.127477930000     0.207375960000   
H      0.234948665000     0.126506520000     0.250070050000   
H      0.235731100000     0.168117865000     0.258614480000   
H      0.123825700000     0.003440190000     0.292870430000   
H      0.157233400000     0.038188955000     0.304119050000   
H      0.163286075000     0.466923150000     0.296897400000   
H      0.197372080000     0.001796605000     0.307720650000   
H      0.187461140000     0.033669275000     0.351674700000   
H      0.194324015000     0.493914485000     0.350688725000   
H      0.152556660000     0.499396900000     0.340895535000   
H      0.150883930000     0.449732480000     0.201980365000   
H      0.192191290000     0.458076200000     0.203262925000   
H      0.176314785000     0.421392900000     0.206951500000   
H      0.214050400000     0.462082500000     0.256216950000   
H      0.172751365000     0.456684100000     0.253135550000   
H      0.262790085000     0.113875585000     0.325950150000   
H      0.280567080000     0.078839205000     0.322003065000   
H      0.302393080000     0.116312115000     0.323023800000   
H      0.276720165000     0.075320720000     0.271750720000   
H      0.257786750000     0.108131715000     0.276142000000   
H      0.217722220000     0.122965560000     0.248137935000   
H      0.173747225000     0.103922695000     0.231761320000   
H      0.190007835000     0.146780685000     0.258251950000   
H      0.179380880000     0.117653995000     0.285769200000   
H      0.222116410000     0.126933560000     0.296370300000   
C      0.382728515000     0.013989515000     0.204022630000   
C      0.439129500000     0.006378275000     0.228943450000   
C      0.466010150000     0.013635735000     0.255794250000   
C      0.472497700000     0.044024910000     0.280057430000   
C      0.452265500000     0.066257285000     0.278417900000   
C      0.425641350000     0.059101545000     0.251904750000   
C      0.416158350000     0.026687805000     0.228556735000   
C      0.003399910000     0.055665715000     0.305964150000   
C      0.410713850000     0.087735290000     0.248385265000   
C      0.421034900000     0.099351300000     0.227974370000   
C      0.437393785000     0.480159000000     0.200186090000   
C      0.441579450000     0.496175100000     0.180064110000   
C      0.486694550000     0.488507270000     0.259109020000   
C      0.465178800000     0.455788550000     0.254239950000   
C      0.445298820000     0.094228950000     0.320802480000   
C      0.428705050000     0.122920810000     0.328363120000   
C      0.414388030000     0.122584250000     0.350590380000   
C      0.492596350000     0.396104365000     0.181188700000   
C      0.007510960000     0.376125300000     0.194318935000   
C      0.038634540000     0.371479950000     0.195025770000   
C      0.054818390000     0.386669900000     0.182460100000   
C      0.461382200000     0.471101730000     0.127014025000   
C      0.424502400000     0.347949050000     0.384552000000   
C      0.446133550000     0.415865630000     0.451315225000   
C      0.439794570000     0.403203450000     0.060259525000   
C      0.409069350000     0.364925625000     0.439920070000   
C      0.476848630000     0.454146450000     0.071653455000   
C      0.416423450000     0.373930100000     0.469825150000   
C      0.469499600000     0.445140420000     0.041748940000   
C      0.486079575000     0.424650220000     0.125623615000   
C      0.454102900000     0.425955175000     0.481436200000   
C      0.431820100000     0.393115350000     0.030137885000   
C      0.439106735000     0.404731950000     0.490686835000   
C      0.399879070000     0.394436630000     0.385947615000   
C      0.446816325000     0.414338600000     0.020887305000   
C      0.401582720000     0.352958800000     0.479331820000   
C      0.484335300000     0.466113270000     0.032241750000   
C      0.476743300000     0.456645370000     0.002482805000   
C      0.409184800000     0.362423750000     0.009091985000   
C      0.461239935000     0.012190760000     0.172724350000   
C      0.428089650000     0.014758945000     0.164162000000   
C      0.420502050000     0.043795705000     0.179307050000   
C      0.445931820000     0.070506575000     0.202959850000   
C      0.479024950000     0.068315505000     0.211382135000   
C      0.486728400000     0.039360820000     0.196274280000   
C      0.424603600000     0.306820500000     0.338841150000   
C      0.457725950000     0.304170650000     0.347441020000   
C      0.465262530000     0.275081050000     0.332312800000   
C      0.439812550000     0.248404650000     0.308640350000   
C      0.406750000000     0.250682980000     0.300181500000   
C      0.399092400000     0.279691875000     0.315271900000   
C      0.008931400000     0.411858750000     0.168872400000   
C      0.040016415000     0.406717100000     0.169344550000   
C      0.377076775000     0.407278150000     0.342732500000   
C      0.393420900000     0.422983975000     0.330391750000   
C      0.378571480000     0.443031370000     0.317309800000   
C      0.347501650000     0.447800430000     0.316675950000   
C      0.331313730000     0.432657570000     0.329266665000   
C      0.346047820000     0.412536550000     0.342332950000   
C      0.469191300000     0.481155700000     0.157014625000   
C      0.416690650000     0.337889650000     0.354550350000   
C      0.493546200000     0.433630750000     0.155461850000   
C      0.392417950000     0.385465050000     0.356121420000   
C      0.485299500000     0.462291200000     0.171636050000   
C      0.400623500000     0.356779365000     0.339938050000   
C      0.392520000000     0.346681850000     0.308194520000   
C      0.469877500000     0.443074400000     0.111224115000   
C      0.416045515000     0.375996170000     0.400350035000   
C      0.493403020000     0.472388750000     0.203379585000   
C      0.350176400000     0.473308115000     0.304071575000   
C      0.286444800000     0.344566950000     0.209077700000   
C      0.298924550000     0.429226600000     0.265902965000   
C      0.284898250000     0.400942775000     0.239338935000   
C      0.303212000000     0.376755300000     0.234303085000   
C      0.335615300000     0.381605350000     0.255702950000   
C      0.351892900000     0.413581280000     0.279289450000   
C      0.333706020000     0.438279250000     0.282790335000   
C      0.272156150000     0.442359550000     0.296893100000   
C      0.242784485000     0.411892600000     0.284296250000   
C      0.235736085000     0.406326800000     0.308607815000   
C      0.249545700000     0.396047750000     0.217774140000   
C      0.249877440000     0.408887325000     0.194797265000   
C      0.352337120000     0.352761715000     0.253759265000   
C      0.344774425000     0.334426225000     0.271349350000   
C      0.387090950000     0.420510750000     0.302221500000   
C      0.414350925000     0.430564820000     0.292827100000   
C      0.172597540000     0.193936915000     0.176922800000   
C      0.147395700000     0.185539600000     0.185460360000   
C      0.129079640000     0.152349425000     0.173397080000   
C      0.135820900000     0.127520085000     0.152652340000   
C      0.255787100000     0.196068840000     0.129230600000   
C      0.127782985000     0.120653495000     0.379894675000   
C      0.191659720000     0.126965580000     0.443290000000   
C      0.191910050000     0.189712850000     0.065826520000   
C      0.156523185000     0.164446175000     0.446890400000   
C      0.227053880000     0.152242480000     0.062228920000   
C      0.164938165000     0.171060385000     0.476570900000   
C      0.218635215000     0.145623160000     0.032546995000   
C      0.198680800000     0.171239285000     0.118143680000   
C      0.200897830000     0.132957175000     0.472936570000   
C      0.182675570000     0.183726350000     0.036181320000   
C      0.187345875000     0.155170635000     0.489634575000   
C      0.184892685000     0.145403115000     0.390956075000   
C      0.196227520000     0.161512900000     0.019483365000   
C      0.151590700000     0.193219800000     0.493482100000   
C      0.231986375000     0.123468830000     0.015637270000   
C      0.223230735000     0.117214090000     0.486222850000   
C      0.160339045000     0.199464320000     0.022893690000   
C      0.300775600000     0.216953350000     0.178916230000   
C      0.317208825000     0.248492510000     0.183218120000   
C      0.350740950000     0.262705775000     0.202580525000   
C      0.368133650000     0.245482500000     0.217632515000   
C      0.352086650000     0.213912600000     0.213194830000   
C      0.318588100000     0.199587525000     0.193824100000   
C      0.082773425000     0.099815600000     0.330226035000   
C      0.066274955000     0.068330595000     0.325978150000   
C      0.032714685000     0.054184330000     0.306656180000   
C      0.015363285000     0.071417720000     0.291590500000   
C      0.031479885000     0.102930785000     0.295974075000   
C      0.065010270000     0.117194025000     0.315305800000   
C      0.179854300000     0.169036625000     0.156381175000   
C      0.161041810000     0.135798485000     0.144083275000   
C      0.203749940000     0.147566110000     0.352734200000   
C      0.210952350000     0.122646405000     0.332162750000   
C      0.236197500000     0.130993300000     0.323650120000   
C      0.254619180000     0.164154900000     0.335769600000   
C      0.247928650000     0.188998520000     0.356542800000   
C      0.222660065000     0.180773215000     0.365086975000   
C      0.265049800000     0.202175720000     0.158811850000   
C      0.118515940000     0.114549270000     0.350313425000   
C      0.207016100000     0.177698865000     0.147704380000   
C      0.176564960000     0.138943200000     0.361406200000   
C      0.240561300000     0.193170900000     0.168476625000   
C      0.143012075000     0.123512600000     0.340641250000   
C      0.133676600000     0.116846295000     0.309267370000   
C      0.222794740000     0.180484100000     0.108768200000   
C      0.160778670000     0.136199450000     0.400349765000   
C      0.249896780000     0.199837225000     0.199850500000   
C      0.279651050000     0.094647005000     0.241492450000   
C      0.351844430000     0.225868650000     0.270643680000   
C      0.332626200000     0.139370920000     0.266051400000   
C      0.349964750000     0.168586030000     0.267403300000   
C      0.332658750000     0.192976650000     0.264113250000   
C      0.298048675000     0.187424200000     0.258897720000   
C      0.279711215000     0.154841690000     0.251352070000   
C      0.297334225000     0.130058100000     0.252908615000   
C      0.350129425000     0.123870915000     0.304195950000   
C      0.377706975000     0.153966935000     0.329409700000   
C      0.377475750000     0.157623410000     0.358826725000   
C      0.387300500000     0.174134565000     0.274461150000   
C      0.393883735000     0.163131165000     0.246678785000   
C      0.281035500000     0.216131525000     0.261998000000   
C      0.281983750000     0.232736735000     0.292843300000   
C      0.242327230000     0.147205300000     0.244488075000   
C      0.220684800000     0.138546480000     0.212404520000   
C      0.135129360000     0.060077425000     0.255174700000   
C      0.252232250000     0.013606975000     0.259729535000   
C      0.168071400000     0.018438565000     0.259685070000   
C      0.193740620000     0.004826425000     0.254626570000   
C      0.223168135000     0.026735130000     0.259908170000   
C      0.226159915000     0.061885755000     0.269586700000   
C      0.197182760000     0.073764185000     0.268310935000   
C      0.167243140000     0.050808055000     0.261012950000   
C      0.148289680000     0.010543705000     0.292044430000   
C      0.172643500000     0.494556500000     0.308003850000   
C      0.176928490000     0.006171895000     0.339784800000   
C      0.190082100000     0.467356025000     0.245700615000   
C      0.176654000000     0.448126000000     0.212508040000   
C      0.260054100000     0.086535140000     0.281770550000   
C      0.277380615000     0.099561190000     0.315112470000   
C      0.198709150000     0.111006245000     0.277376050000   
C      0.194789125000     0.121584395000     0.252322300000   
N      0.423912650000     0.385799150000     0.431167650000   
N      0.462010385000     0.433271450000     0.080406450000   
N      0.169841840000     0.142671300000     0.430808500000   
N      0.213731540000     0.174012230000     0.078309385000   
O      0.367861865000     0.035653045000     0.197866080000   
O      0.031195580000     0.060339000000     0.302955400000   
O      0.368538650000     0.481804250000     0.189704375000   
O      0.002099755000     0.062033915000     0.331051380000   
O      0.460821180000     0.096915610000     0.302038370000   
O      0.411190330000     0.335573900000     0.296492725000   
O      0.474732725000     0.483496700000     0.215081440000   
O      0.366489100000     0.348617900000     0.291062685000   
O      0.019433975000     0.470452650000     0.220511480000   
O      0.460748375000     0.435848850000     0.442305950000   
O      0.425184800000     0.383218800000     0.069269435000   
O      0.387009380000     0.335665315000     0.419764900000   
O      0.498903500000     0.483408200000     0.091807985000   
O      0.381101450000     0.486288100000     0.309945050000   
O      0.332819550000     0.490683650000     0.315792050000   
O      0.271979300000     0.343125850000     0.182871325000   
O      0.284727485000     0.318371350000     0.214385200000   
O      0.278492870000     0.448589050000     0.274554520000   
O      0.113327750000     0.091286675000     0.288828200000   
O      0.270245650000     0.225396870000     0.220289735000   
O      0.145545800000     0.136350735000     0.301208735000   
O      0.238027615000     0.180332810000     0.207909210000   
O      0.204173385000     0.105360910000     0.427033650000   
O      0.179392725000     0.211312385000     0.082081475000   
O      0.135432540000     0.179926140000     0.434321970000   
O      0.248148175000     0.136767580000     0.074798765000   
O      0.250997650000     0.082159825000     0.218939515000   
O      0.293839450000     0.076490865000     0.253866730000   
O      0.371608750000     0.228769690000     0.257746875000   
O      0.349986550000     0.251120985000     0.291013350000   
O      0.350557150000     0.119416290000     0.276641700000   
O      0.129202150000     0.081187180000     0.243308550000   
O      0.113049360000     0.045960545000     0.261292575000   
O      0.249995140000     0.487689850000     0.237181100000   
O      0.278999180000     0.027345285000     0.283477700000   
O      0.143163385000     0.499258450000     0.262136965000   
Zn     0.302668870000     0.257051150000     0.762663550000   
Zn     0.331437230000     0.311290475000     0.747813210000   
Zn     0.084406240000     0.039979985000     0.788494200000   
Zn     0.050990040000     0.029039990000     0.722318440000   
Zn     0.344198525000     0.017065295000     0.760820800000   
Zn     0.290381225000     0.051938565000     0.751218975000   
H      0.448300125000     0.111187665000     0.738431800000   
H      0.415478230000     0.078365650000     0.706733880000   
H      0.407597400000     0.118084005000     0.723779960000   
H      0.383340500000     0.081371360000     0.741455550000   
H      0.419728100000     0.110140810000     0.769249765000   
H      0.421671700000     0.008892360000     0.674317760000   
H      0.466170370000     0.014732875000     0.690968150000   
H      0.440325380000     0.476652535000     0.659505425000   
H      0.457295270000     0.466947975000     0.703314950000   
H      0.414039670000     0.460015800000     0.688769890000   
H      0.450575900000     0.460983650000     0.767927550000   
H      0.447526635000     0.441482450000     0.731092990000   
H      0.481555150000     0.439942775000     0.760417550000   
H      0.499847025000     0.483892250000     0.744246870000   
H      0.006826045000     0.497752000000     0.781254085000   
H      0.464885900000     0.096768805000     0.841560400000   
H      0.426497800000     0.070000925000     0.811846375000   
H      0.447369650000     0.147147640000     0.837498050000   
H      0.408011600000     0.120778980000     0.808429000000   
H      0.394591420000     0.099152320000     0.841361970000   
H      0.403297050000     0.144144935000     0.856009485000   
H      0.434364615000     0.124677375000     0.871006130000   
H      0.384029950000     0.329127075000     0.963791000000   
H      0.001888035000     0.489944950000     0.547782490000   
H      0.488679900000     0.473478900000     0.996023500000   
H      0.397248270000     0.345590150000     0.515551245000   
H      0.449032635000     0.485454620000     0.615873925000   
H      0.436823650000     0.333573430000     0.895685150000   
H      0.492450030000     0.402846900000     0.613341845000   
H      0.393539700000     0.416266100000     0.898247270000   
H      0.408127070000     0.494139150000     0.646018400000   
H      0.394891380000     0.045556130000     0.672774525000   
H      0.440000980000     0.092913270000     0.714734240000   
H      0.498697520000     0.089037655000     0.729665860000   
H      0.012489735000     0.038005115000     0.702997565000   
H      0.477703750000     0.324757365000     0.865603650000   
H      0.490853130000     0.273255080000     0.838885900000   
H      0.445708125000     0.225963535000     0.796897470000   
H      0.387059750000     0.229986430000     0.781887750000   
H      0.373348800000     0.281105725000     0.808517070000   
H      0.468443900000     0.399457125000     0.680748600000   
H      0.494979620000     0.364301620000     0.704009265000   
H      0.050187230000     0.356078475000     0.705273500000   
H      0.078890025000     0.382991650000     0.682963580000   
H      0.052930595000     0.418554150000     0.659877865000   
H      0.417538200000     0.419543625000     0.830775915000   
H      0.391114850000     0.454822420000     0.807607400000   
H      0.336006700000     0.463264465000     0.806484950000   
H      0.307287575000     0.436432900000     0.828821900000   
H      0.333126800000     0.400743050000     0.851813600000   
H      0.265934000000     0.464642700000     0.809918950000   
H      0.294352250000     0.439033800000     0.812477100000   
H      0.220044650000     0.415499180000     0.769642400000   
H      0.248802215000     0.389308630000     0.771532120000   
H      0.257747830000     0.401413300000     0.822966070000   
H      0.214139820000     0.384414600000     0.798874080000   
H      0.229692550000     0.428565175000     0.821923700000   
H      0.260266650000     0.436278520000     0.705130235000   
H      0.265129600000     0.397339150000     0.683208660000   
H      0.223966100000     0.403033825000     0.678490280000   
H      0.235292210000     0.369490475000     0.706851035000   
H      0.234760610000     0.409432650000     0.728953550000   
H      0.355096600000     0.351125420000     0.794985680000   
H      0.317549885000     0.324942170000     0.764064430000   
H      0.356195120000     0.312914220000     0.768495975000   
H      0.344740480000     0.334699900000     0.730811750000   
H      0.379671725000     0.361390085000     0.761721500000   
H      0.416476700000     0.408769875000     0.775785565000   
H      0.409327550000     0.449632400000     0.784096865000   
H      0.438782700000     0.441042065000     0.811972400000   
H      0.390896765000     0.440245865000     0.823612100000   
H      0.390967900000     0.398862350000     0.807528675000   
H      0.134309750000     0.205820200000     0.984035100000   
H      0.249267280000     0.110868440000     0.525084215000   
H      0.234041650000     0.099993570000     0.973925950000   
H      0.149528100000     0.216684865000     0.535190565000   
H      0.274459035000     0.203014100000     0.621899075000   
H      0.109100385000     0.113736785000     0.887230635000   
H      0.173120720000     0.159375300000     0.602326065000   
H      0.210466650000     0.157240870000     0.906780035000   
H      0.303939730000     0.262207120000     0.671863065000   
H      0.363222550000     0.287126500000     0.705997885000   
H      0.394050775000     0.256577000000     0.732701390000   
H      0.365598470000     0.200578050000     0.724822685000   
H      0.306458500000     0.175075980000     0.690547885000   
H      0.079506345000     0.054610970000     0.837348350000   
H      0.020180775000     0.029809790000     0.803292720000   
H      0.489430515000     0.060379415000     0.776571400000   
H      0.018000315000     0.116277950000     0.784342100000   
H      0.077186740000     0.141666950000     0.818539100000   
H      0.186571150000     0.219762745000     0.686407050000   
H      0.142110735000     0.204748825000     0.701480760000   
H      0.109639000000     0.145879650000     0.680093840000   
H      0.121566150000     0.101833195000     0.643276110000   
H      0.166191000000     0.116285540000     0.628149615000   
H      0.196902290000     0.096835590000     0.822632850000   
H      0.241443700000     0.111766810000     0.807612000000   
H      0.274101400000     0.170586960000     0.829110250000   
H      0.262264820000     0.214660020000     0.865963200000   
H      0.217558325000     0.200298070000     0.881038150000   
H      0.354226380000     0.101044490000     0.807599750000   
H      0.325660950000     0.126513540000     0.805127100000   
H      0.402455250000     0.150975240000     0.829513200000   
H      0.373705650000     0.177065985000     0.826541500000   