%BLOCK LATTICE_CART
ang    # angstrom units
  16.060070000000    0.000000000000     0.000000000000   
  1.910330003479     16.122649489544    0.000000000000   
 -3.468710124912    -2.892678042189     17.071883937960  
%ENDBLOCK LATTICE_CART

%BLOCK POSITIONS_FRAC
Zn     0.284197270000     0.151423450000     0.012429475000   
Zn     0.218394050000     0.102169620000     0.453351400000   
H      0.146744750000     0.113470905000     0.114119285000   
H      0.356824500000     0.141432690000     0.351744115000   
H      0.244087485000     0.080538230000     0.223893715000   
H      0.259479750000     0.174365350000     0.241970075000   
H      0.307219500000     0.167360150000     0.198351115000   
H      0.196349700000     0.087543475000     0.267512230000   
H      0.359507150000     0.153131785000     0.291887400000   
H      0.144062100000     0.101771890000     0.173976000000   
H      0.285354500000     0.231119380000     0.419591130000   
H      0.334680100000     0.242289750000     0.443484950000   
H      0.217110885000     0.026311815000     0.048025430000   
H      0.167785270000     0.015141430000     0.024131595000   
H      0.270215150000     0.380470000000     0.401922350000   
H      0.232247650000     0.376960100000     0.065689505000   
H      0.227372810000     0.487257050000     0.371817680000   
H      0.275858820000     0.002608595000     0.396631200000   
H      0.275092630000     0.270174115000     0.095798910000   
H      0.226606550000     0.254822550000     0.070985315000   
H      0.283266100000     0.311488330000     0.446674100000   
H      0.219199330000     0.445942820000     0.020942390000   
H      0.140255285000     0.225223260000     0.492797450000   
H      0.385299920000     0.119627045000     0.090913890000   
H      0.089960435000     0.193267925000     0.018943550000   
H      0.454716325000     0.132420850000     0.079276680000   
H      0.383753800000     0.007419415000     0.003003300000   
H      0.452860175000     0.020313735000     0.491442770000   
C      0.177090050000     0.145603350000     0.061874960000   
C      0.326479200000     0.109300330000     0.403988420000   
C      0.198191450000     0.143900230000     0.102819660000   
C      0.305379950000     0.111008145000     0.363050250000   
C      0.176968550000     0.126532480000     0.126432640000   
C      0.326600650000     0.128371200000     0.339430720000   
C      0.193575680000     0.126523525000     0.166131500000   
C      0.309995700000     0.128384890000     0.299738400000   
C      0.232954250000     0.143143920000     0.182455330000   
C      0.270614980000     0.111759665000     0.283408015000   
C      0.255228800000     0.160263210000     0.158911720000   
C      0.248340460000     0.094640495000     0.306951670000   
C      0.237506910000     0.161147415000     0.119432645000   
C      0.266062320000     0.093756235000     0.346430720000   
C      0.249557750000     0.144694135000     0.224627135000   
C      0.254011480000     0.110209585000     0.241236270000   
C      0.259838450000     0.329102785000     0.001554785000   
C      0.249329700000     0.443993550000     0.433119250000   
C      0.253135680000     0.313437600000     0.034497320000   
C      0.237647725000     0.487450780000     0.430470675000   
C      0.264817685000     0.269980400000     0.037145915000   
C      0.268062900000     0.414086750000     0.402055550000   
C      0.234402535000     0.343344450000     0.065561000000   
C      0.213889925000     0.499015900000     0.491471800000   
C      0.288575500000     0.258415280000     0.476144750000   
C      0.224764480000     0.456522375000     0.495176650000   
C      0.277700930000     0.300908775000     0.472439915000   
C      0.242626920000     0.428328400000     0.466061770000   
C      0.180289270000     0.192677440000     0.432813300000   
C      0.144467475000     0.175232575000     0.443540600000   
C      0.129333885000     0.195280715000     0.477449120000   
C      0.101128725000     0.176501500000     0.492820350000   
C      0.087583205000     0.136771260000     0.475049850000   
C      0.102763860000     0.115926055000     0.440790265000   
C      0.129937600000     0.135706035000     0.424419375000   
C      0.495026000000     0.090156460000     0.020608485000   
C      0.056218865000     0.119061050000     0.491744430000   
C      0.439971150000     0.104476730000     0.063256800000   
C      0.400154850000     0.097295135000     0.069684745000   
C      0.399238250000     0.034348860000     0.020425675000   
C      0.438776250000     0.041724515000     0.013790010000   
C      0.458634825000     0.077714100000     0.034031210000   
C      0.378779950000     0.063043065000     0.047230305000   
C      0.334090000000     0.059215470000     0.049115540000   
Br     0.089197590000     0.059597740000     0.415923200000   
N      0.195876690000     0.026860835000     0.021553875000   
N      0.243331850000     0.004469575000     0.397427380000   
N      0.259133550000     0.252961650000     0.070189180000   
N      0.220304860000     0.013853670000     0.459467100000   
N      0.282160520000     0.243577450000     0.008149445000   
N      0.254618615000     0.384590270000     0.468857230000   
N      0.247846840000     0.372840900000     0.498759350000   
N      0.306588650000     0.230570360000     0.446062625000   
N      0.021325850000     0.118181810000     0.043777940000   
N      0.051496290000     0.132224025000     0.029636980000   
N      0.029555625000     0.091441170000     0.468779650000   
N      0.499787925000     0.077077570000     0.482893500000   
N      0.141401040000     0.115942635000     0.387663425000   
Cl     0.238262070000     0.069017015000     0.373359600000   
Cl     0.265307200000     0.185886560000     0.092503750000   
O      0.200355950000     0.148433300000     0.036585195000   
O      0.303213270000     0.106470315000     0.429278200000   
O      0.136167390000     0.143137150000     0.053503960000   
O      0.367401850000     0.111766450000     0.412359415000   
O      0.294208885000     0.176687660000     0.173245340000   
O      0.209360350000     0.078215980000     0.292618050000   
O      0.332401750000     0.143134920000     0.276064425000   
O      0.171167465000     0.111768725000     0.189798935000   
O      0.281996100000     0.426030725000     0.376593920000   
O      0.220481010000     0.331402870000     0.091030000000   
O      0.197552400000     0.170221500000     0.404890950000   
O      0.180616365000     0.233103665000     0.437557750000   
O      0.313644350000     0.089253090000     0.068042040000   
O      0.315840335000     0.027168385000     0.029431345000   
O      0.126583425000     0.132506900000     0.356347700000   
O      0.166842190000     0.081660970000     0.385420900000   
Zn     0.284197270000     0.151423450000     0.512429475000   
Zn     0.218394050000     0.102169620000     0.953351400000   
H      0.146744750000     0.113470905000     0.614119285000   
H      0.356824500000     0.141432690000     0.851744115000   
H      0.244087485000     0.080538230000     0.723893715000   
H      0.259479750000     0.174365350000     0.741970075000   
H      0.307219500000     0.167360150000     0.698351115000   
H      0.196349700000     0.087543475000     0.767512230000   
H      0.359507150000     0.153131785000     0.791887400000   
H      0.144062100000     0.101771890000     0.673976000000   
H      0.285354500000     0.231119380000     0.919591130000   
H      0.334680100000     0.242289750000     0.943484950000   
H      0.217110885000     0.026311815000     0.548025430000   
H      0.167785270000     0.015141430000     0.524131595000   
H      0.270215150000     0.380470000000     0.901922350000   
H      0.232247650000     0.376960100000     0.565689505000   
H      0.227372810000     0.487257050000     0.871817680000   
H      0.275858820000     0.002608595000     0.896631200000   
H      0.275092630000     0.270174115000     0.595798910000   
H      0.226606550000     0.254822550000     0.570985315000   
H      0.283266100000     0.311488330000     0.946674100000   
H      0.219199330000     0.445942820000     0.520942390000   
H      0.140255285000     0.225223260000     0.992797450000   
H      0.385299920000     0.119627045000     0.590913890000   
H      0.089960435000     0.193267925000     0.518943550000   
H      0.454716325000     0.132420850000     0.579276680000   
H      0.383753800000     0.007419415000     0.503003300000   
H      0.452860175000     0.020313735000     0.991442770000   
C      0.177090050000     0.145603350000     0.561874960000   
C      0.326479200000     0.109300330000     0.903988420000   
C      0.198191450000     0.143900230000     0.602819660000   
C      0.305379950000     0.111008145000     0.863050250000   
C      0.176968550000     0.126532480000     0.626432640000   
C      0.326600650000     0.128371200000     0.839430720000   
C      0.193575680000     0.126523525000     0.666131500000   
C      0.309995700000     0.128384890000     0.799738400000   
C      0.232954250000     0.143143920000     0.682455330000   
C      0.270614980000     0.111759665000     0.783408015000   
C      0.255228800000     0.160263210000     0.658911720000   
C      0.248340460000     0.094640495000     0.806951670000   
C      0.237506910000     0.161147415000     0.619432645000   
C      0.266062320000     0.093756235000     0.846430720000   
C      0.249557750000     0.144694135000     0.724627135000   
C      0.254011480000     0.110209585000     0.741236270000   
C      0.259838450000     0.329102785000     0.501554785000   
C      0.249329700000     0.443993550000     0.933119250000   
C      0.253135680000     0.313437600000     0.534497320000   
C      0.237647725000     0.487450780000     0.930470675000   
C      0.264817685000     0.269980400000     0.537145915000   
C      0.268062900000     0.414086750000     0.902055550000   
C      0.234402535000     0.343344450000     0.565561000000   
C      0.213889925000     0.499015900000     0.991471800000   
C      0.288575500000     0.258415280000     0.976144750000   
C      0.224764480000     0.456522375000     0.995176650000   
C      0.277700930000     0.300908775000     0.972439915000   
C      0.242626920000     0.428328400000     0.966061770000   
C      0.180289270000     0.192677440000     0.932813300000   
C      0.144467475000     0.175232575000     0.943540600000   
C      0.129333885000     0.195280715000     0.977449120000   
C      0.101128725000     0.176501500000     0.992820350000   
C      0.087583205000     0.136771260000     0.975049850000   
C      0.102763860000     0.115926055000     0.940790265000   
C      0.129937600000     0.135706035000     0.924419375000   
C      0.495026000000     0.090156460000     0.520608485000   
C      0.056218865000     0.119061050000     0.991744430000   
C      0.439971150000     0.104476730000     0.563256800000   
C      0.400154850000     0.097295135000     0.569684745000   
C      0.399238250000     0.034348860000     0.520425675000   
C      0.438776250000     0.041724515000     0.513790010000   
C      0.458634825000     0.077714100000     0.534031210000   
C      0.378779950000     0.063043065000     0.547230305000   
C      0.334090000000     0.059215470000     0.549115540000   
Br     0.089197590000     0.059597740000     0.915923200000   
N      0.195876690000     0.026860835000     0.521553875000   
N      0.243331850000     0.004469575000     0.897427380000   
N      0.259133550000     0.252961650000     0.570189180000   
N      0.220304860000     0.013853670000     0.959467100000   
N      0.282160520000     0.243577450000     0.508149445000   
N      0.254618615000     0.384590270000     0.968857230000   
N      0.247846840000     0.372840900000     0.998759350000   
N      0.306588650000     0.230570360000     0.946062625000   
N      0.021325850000     0.118181810000     0.543777940000   
N      0.051496290000     0.132224025000     0.529636980000   
N      0.029555625000     0.091441170000     0.968779650000   
N      0.499787925000     0.077077570000     0.982893500000   
N      0.141401040000     0.115942635000     0.887663425000   
Cl     0.238262070000     0.069017015000     0.873359600000   
Cl     0.265307200000     0.185886560000     0.592503750000   
O      0.200355950000     0.148433300000     0.536585195000   
O      0.303213270000     0.106470315000     0.929278200000   
O      0.136167390000     0.143137150000     0.553503960000   
O      0.367401850000     0.111766450000     0.912359415000   
O      0.294208885000     0.176687660000     0.673245340000   
O      0.209360350000     0.078215980000     0.792618050000   
O      0.332401750000     0.143134920000     0.776064425000   
O      0.171167465000     0.111768725000     0.689798935000   
O      0.281996100000     0.426030725000     0.876593920000   
O      0.220481010000     0.331402870000     0.591030000000   
O      0.197552400000     0.170221500000     0.904890950000   
O      0.180616365000     0.233103665000     0.937557750000   
O      0.313644350000     0.089253090000     0.568042040000   
O      0.315840335000     0.027168385000     0.529431345000   
O      0.126583425000     0.132506900000     0.856347700000   
O      0.166842190000     0.081660970000     0.885420900000   
Zn     0.284197270000     0.651423450000     0.012429475000   
Zn     0.218394050000     0.602169620000     0.453351400000   
H      0.146744750000     0.613470905000     0.114119285000   
H      0.356824500000     0.641432690000     0.351744115000   
H      0.244087485000     0.580538230000     0.223893715000   
H      0.259479750000     0.674365350000     0.241970075000   
H      0.307219500000     0.667360150000     0.198351115000   
H      0.196349700000     0.587543475000     0.267512230000   
H      0.359507150000     0.653131785000     0.291887400000   
H      0.144062100000     0.601771890000     0.173976000000   
H      0.285354500000     0.731119380000     0.419591130000   
H      0.334680100000     0.742289750000     0.443484950000   
H      0.217110885000     0.526311815000     0.048025430000   
H      0.167785270000     0.515141430000     0.024131595000   
H      0.270215150000     0.880470000000     0.401922350000   
H      0.232247650000     0.876960100000     0.065689505000   
H      0.227372810000     0.987257050000     0.371817680000   
H      0.275858820000     0.502608595000     0.396631200000   
H      0.275092630000     0.770174115000     0.095798910000   
H      0.226606550000     0.754822550000     0.070985315000   
H      0.283266100000     0.811488330000     0.446674100000   
H      0.219199330000     0.945942820000     0.020942390000   
H      0.140255285000     0.725223260000     0.492797450000   
H      0.385299920000     0.619627045000     0.090913890000   
H      0.089960435000     0.693267925000     0.018943550000   
H      0.454716325000     0.632420850000     0.079276680000   
H      0.383753800000     0.507419415000     0.003003300000   
H      0.452860175000     0.520313735000     0.491442770000   
C      0.177090050000     0.645603350000     0.061874960000   
C      0.326479200000     0.609300330000     0.403988420000   
C      0.198191450000     0.643900230000     0.102819660000   
C      0.305379950000     0.611008145000     0.363050250000   
C      0.176968550000     0.626532480000     0.126432640000   
C      0.326600650000     0.628371200000     0.339430720000   
C      0.193575680000     0.626523525000     0.166131500000   
C      0.309995700000     0.628384890000     0.299738400000   
C      0.232954250000     0.643143920000     0.182455330000   
C      0.270614980000     0.611759665000     0.283408015000   
C      0.255228800000     0.660263210000     0.158911720000   
C      0.248340460000     0.594640495000     0.306951670000   
C      0.237506910000     0.661147415000     0.119432645000   
C      0.266062320000     0.593756235000     0.346430720000   
C      0.249557750000     0.644694135000     0.224627135000   
C      0.254011480000     0.610209585000     0.241236270000   
C      0.259838450000     0.829102785000     0.001554785000   
C      0.249329700000     0.943993550000     0.433119250000   
C      0.253135680000     0.813437600000     0.034497320000   
C      0.237647725000     0.987450780000     0.430470675000   
C      0.264817685000     0.769980400000     0.037145915000   
C      0.268062900000     0.914086750000     0.402055550000   
C      0.234402535000     0.843344450000     0.065561000000   
C      0.213889925000     0.999015900000     0.491471800000   
C      0.288575500000     0.758415280000     0.476144750000   
C      0.224764480000     0.956522375000     0.495176650000   
C      0.277700930000     0.800908775000     0.472439915000   
C      0.242626920000     0.928328400000     0.466061770000   
C      0.180289270000     0.692677440000     0.432813300000   
C      0.144467475000     0.675232575000     0.443540600000   
C      0.129333885000     0.695280715000     0.477449120000   
C      0.101128725000     0.676501500000     0.492820350000   
C      0.087583205000     0.636771260000     0.475049850000   
C      0.102763860000     0.615926055000     0.440790265000   
C      0.129937600000     0.635706035000     0.424419375000   
C      0.495026000000     0.590156460000     0.020608485000   
C      0.056218865000     0.619061050000     0.491744430000   
C      0.439971150000     0.604476730000     0.063256800000   
C      0.400154850000     0.597295135000     0.069684745000   
C      0.399238250000     0.534348860000     0.020425675000   
C      0.438776250000     0.541724515000     0.013790010000   
C      0.458634825000     0.577714100000     0.034031210000   
C      0.378779950000     0.563043065000     0.047230305000   
C      0.334090000000     0.559215470000     0.049115540000   
Br     0.089197590000     0.559597740000     0.415923200000   
N      0.195876690000     0.526860835000     0.021553875000   
N      0.243331850000     0.504469575000     0.397427380000   
N      0.259133550000     0.752961650000     0.070189180000   
N      0.220304860000     0.513853670000     0.459467100000   
N      0.282160520000     0.743577450000     0.008149445000   
N      0.254618615000     0.884590270000     0.468857230000   
N      0.247846840000     0.872840900000     0.498759350000   
N      0.306588650000     0.730570360000     0.446062625000   
N      0.021325850000     0.618181810000     0.043777940000   
N      0.051496290000     0.632224025000     0.029636980000   
N      0.029555625000     0.591441170000     0.468779650000   
N      0.499787925000     0.577077570000     0.482893500000   
N      0.141401040000     0.615942635000     0.387663425000   
Cl     0.238262070000     0.569017015000     0.373359600000   
Cl     0.265307200000     0.685886560000     0.092503750000   
O      0.200355950000     0.648433300000     0.036585195000   
O      0.303213270000     0.606470315000     0.429278200000   
O      0.136167390000     0.643137150000     0.053503960000   
O      0.367401850000     0.611766450000     0.412359415000   
O      0.294208885000     0.676687660000     0.173245340000   
O      0.209360350000     0.578215980000     0.292618050000   
O      0.332401750000     0.643134920000     0.276064425000   
O      0.171167465000     0.611768725000     0.189798935000   
O      0.281996100000     0.926030725000     0.376593920000   
O      0.220481010000     0.831402870000     0.091030000000   
O      0.197552400000     0.670221500000     0.404890950000   
O      0.180616365000     0.733103665000     0.437557750000   
O      0.313644350000     0.589253090000     0.068042040000   
O      0.315840335000     0.527168385000     0.029431345000   
O      0.126583425000     0.632506900000     0.356347700000   
O      0.166842190000     0.581660970000     0.385420900000   
Zn     0.284197270000     0.651423450000     0.512429475000   
Zn     0.218394050000     0.602169620000     0.953351400000   
H      0.146744750000     0.613470905000     0.614119285000   
H      0.356824500000     0.641432690000     0.851744115000   
H      0.244087485000     0.580538230000     0.723893715000   
H      0.259479750000     0.674365350000     0.741970075000   
H      0.307219500000     0.667360150000     0.698351115000   
H      0.196349700000     0.587543475000     0.767512230000   
H      0.359507150000     0.653131785000     0.791887400000   
H      0.144062100000     0.601771890000     0.673976000000   
H      0.285354500000     0.731119380000     0.919591130000   
H      0.334680100000     0.742289750000     0.943484950000   
H      0.217110885000     0.526311815000     0.548025430000   
H      0.167785270000     0.515141430000     0.524131595000   
H      0.270215150000     0.880470000000     0.901922350000   
H      0.232247650000     0.876960100000     0.565689505000   
H      0.227372810000     0.987257050000     0.871817680000   
H      0.275858820000     0.502608595000     0.896631200000   
H      0.275092630000     0.770174115000     0.595798910000   
H      0.226606550000     0.754822550000     0.570985315000   
H      0.283266100000     0.811488330000     0.946674100000   
H      0.219199330000     0.945942820000     0.520942390000   
H      0.140255285000     0.725223260000     0.992797450000   
H      0.385299920000     0.619627045000     0.590913890000   
H      0.089960435000     0.693267925000     0.518943550000   
H      0.454716325000     0.632420850000     0.579276680000   
H      0.383753800000     0.507419415000     0.503003300000   
H      0.452860175000     0.520313735000     0.991442770000   
C      0.177090050000     0.645603350000     0.561874960000   
C      0.326479200000     0.609300330000     0.903988420000   
C      0.198191450000     0.643900230000     0.602819660000   
C      0.305379950000     0.611008145000     0.863050250000   
C      0.176968550000     0.626532480000     0.626432640000   
C      0.326600650000     0.628371200000     0.839430720000   
C      0.193575680000     0.626523525000     0.666131500000   
C      0.309995700000     0.628384890000     0.799738400000   
C      0.232954250000     0.643143920000     0.682455330000   
C      0.270614980000     0.611759665000     0.783408015000   
C      0.255228800000     0.660263210000     0.658911720000   
C      0.248340460000     0.594640495000     0.806951670000   
C      0.237506910000     0.661147415000     0.619432645000   
C      0.266062320000     0.593756235000     0.846430720000   
C      0.249557750000     0.644694135000     0.724627135000   
C      0.254011480000     0.610209585000     0.741236270000   
C      0.259838450000     0.829102785000     0.501554785000   
C      0.249329700000     0.943993550000     0.933119250000   
C      0.253135680000     0.813437600000     0.534497320000   
C      0.237647725000     0.987450780000     0.930470675000   
C      0.264817685000     0.769980400000     0.537145915000   
C      0.268062900000     0.914086750000     0.902055550000   
C      0.234402535000     0.843344450000     0.565561000000   
C      0.213889925000     0.999015900000     0.991471800000   
C      0.288575500000     0.758415280000     0.976144750000   
C      0.224764480000     0.956522375000     0.995176650000   
C      0.277700930000     0.800908775000     0.972439915000   
C      0.242626920000     0.928328400000     0.966061770000   
C      0.180289270000     0.692677440000     0.932813300000   
C      0.144467475000     0.675232575000     0.943540600000   
C      0.129333885000     0.695280715000     0.977449120000   
C      0.101128725000     0.676501500000     0.992820350000   
C      0.087583205000     0.636771260000     0.975049850000   
C      0.102763860000     0.615926055000     0.940790265000   
C      0.129937600000     0.635706035000     0.924419375000   
C      0.495026000000     0.590156460000     0.520608485000   
C      0.056218865000     0.619061050000     0.991744430000   
C      0.439971150000     0.604476730000     0.563256800000   
C      0.400154850000     0.597295135000     0.569684745000   
C      0.399238250000     0.534348860000     0.520425675000   
C      0.438776250000     0.541724515000     0.513790010000   
C      0.458634825000     0.577714100000     0.534031210000   
C      0.378779950000     0.563043065000     0.547230305000   
C      0.334090000000     0.559215470000     0.549115540000   
Br     0.089197590000     0.559597740000     0.915923200000   
N      0.195876690000     0.526860835000     0.521553875000   
N      0.243331850000     0.504469575000     0.897427380000   
N      0.259133550000     0.752961650000     0.570189180000   
N      0.220304860000     0.513853670000     0.959467100000   
N      0.282160520000     0.743577450000     0.508149445000   
N      0.254618615000     0.884590270000     0.968857230000   
N      0.247846840000     0.872840900000     0.998759350000   
N      0.306588650000     0.730570360000     0.946062625000   
N      0.021325850000     0.618181810000     0.543777940000   
N      0.051496290000     0.632224025000     0.529636980000   
N      0.029555625000     0.591441170000     0.968779650000   
N      0.499787925000     0.577077570000     0.982893500000   
N      0.141401040000     0.615942635000     0.887663425000   
Cl     0.238262070000     0.569017015000     0.873359600000   
Cl     0.265307200000     0.685886560000     0.592503750000   
O      0.200355950000     0.648433300000     0.536585195000   
O      0.303213270000     0.606470315000     0.929278200000   
O      0.136167390000     0.643137150000     0.553503960000   
O      0.367401850000     0.611766450000     0.912359415000   
O      0.294208885000     0.676687660000     0.673245340000   
O      0.209360350000     0.578215980000     0.792618050000   
O      0.332401750000     0.643134920000     0.776064425000   
O      0.171167465000     0.611768725000     0.689798935000   
O      0.281996100000     0.926030725000     0.876593920000   
O      0.220481010000     0.831402870000     0.591030000000   
O      0.197552400000     0.670221500000     0.904890950000   
O      0.180616365000     0.733103665000     0.937557750000   
O      0.313644350000     0.589253090000     0.568042040000   
O      0.315840335000     0.527168385000     0.529431345000   
O      0.126583425000     0.632506900000     0.856347700000   
O      0.166842190000     0.581660970000     0.885420900000   
Zn     0.784197270000     0.151423450000     0.012429475000   
Zn     0.718394050000     0.102169620000     0.453351400000   
H      0.646744750000     0.113470905000     0.114119285000   
H      0.856824500000     0.141432690000     0.351744115000   
H      0.744087485000     0.080538230000     0.223893715000   
H      0.759479750000     0.174365350000     0.241970075000   
H      0.807219500000     0.167360150000     0.198351115000   
H      0.696349700000     0.087543475000     0.267512230000   
H      0.859507150000     0.153131785000     0.291887400000   
H      0.644062100000     0.101771890000     0.173976000000   
H      0.785354500000     0.231119380000     0.419591130000   
H      0.834680100000     0.242289750000     0.443484950000   
H      0.717110885000     0.026311815000     0.048025430000   
H      0.667785270000     0.015141430000     0.024131595000   
H      0.770215150000     0.380470000000     0.401922350000   
H      0.732247650000     0.376960100000     0.065689505000   
H      0.727372810000     0.487257050000     0.371817680000   
H      0.775858820000     0.002608595000     0.396631200000   
H      0.775092630000     0.270174115000     0.095798910000   
H      0.726606550000     0.254822550000     0.070985315000   
H      0.783266100000     0.311488330000     0.446674100000   
H      0.719199330000     0.445942820000     0.020942390000   
H      0.640255285000     0.225223260000     0.492797450000   
H      0.885299920000     0.119627045000     0.090913890000   
H      0.589960435000     0.193267925000     0.018943550000   
H      0.954716325000     0.132420850000     0.079276680000   
H      0.883753800000     0.007419415000     0.003003300000   
H      0.952860175000     0.020313735000     0.491442770000   
C      0.677090050000     0.145603350000     0.061874960000   
C      0.826479200000     0.109300330000     0.403988420000   
C      0.698191450000     0.143900230000     0.102819660000   
C      0.805379950000     0.111008145000     0.363050250000   
C      0.676968550000     0.126532480000     0.126432640000   
C      0.826600650000     0.128371200000     0.339430720000   
C      0.693575680000     0.126523525000     0.166131500000   
C      0.809995700000     0.128384890000     0.299738400000   
C      0.732954250000     0.143143920000     0.182455330000   
C      0.770614980000     0.111759665000     0.283408015000   
C      0.755228800000     0.160263210000     0.158911720000   
C      0.748340460000     0.094640495000     0.306951670000   
C      0.737506910000     0.161147415000     0.119432645000   
C      0.766062320000     0.093756235000     0.346430720000   
C      0.749557750000     0.144694135000     0.224627135000   
C      0.754011480000     0.110209585000     0.241236270000   
C      0.759838450000     0.329102785000     0.001554785000   
C      0.749329700000     0.443993550000     0.433119250000   
C      0.753135680000     0.313437600000     0.034497320000   
C      0.737647725000     0.487450780000     0.430470675000   
C      0.764817685000     0.269980400000     0.037145915000   
C      0.768062900000     0.414086750000     0.402055550000   
C      0.734402535000     0.343344450000     0.065561000000   
C      0.713889925000     0.499015900000     0.491471800000   
C      0.788575500000     0.258415280000     0.476144750000   
C      0.724764480000     0.456522375000     0.495176650000   
C      0.777700930000     0.300908775000     0.472439915000   
C      0.742626920000     0.428328400000     0.466061770000   