%BLOCK LATTICE_CART
ang    # angstrom units
  12.374539210000    0.000000000000     0.000000000000   
  2.368891357524     16.979029617965    0.000000000000   
  3.250833822724     0.967629078767     19.507551264988  
%ENDBLOCK LATTICE_CART

%BLOCK POSITIONS_FRAC
C      0.051664350000     0.001139745000     0.049601790000   
C      0.001617120000     0.135342585000     0.069240225000   
C      0.155488875000     0.209836250000     0.020128590000   
C      0.276896500000     0.007165080000     0.033244750000   
C      0.277880250000     0.107159585000     0.001221985000   
C      0.314443875000     0.097438375000     0.053540765000   
C      0.327496250000     0.136073165000     0.048494315000   
C      0.290835625000     0.082384950000     0.028904325000   
C      0.283117375000     0.041477390000     0.031079660000   
C      0.409798375000     0.130831665000     0.060938165000   
C      0.442075625000     0.147035915000     0.083187350000   
C      0.294601875000     0.071590385000     0.109594915000   
C      0.293881000000     0.103364500000     0.135173500000   
C      0.257523375000     0.097368175000     0.169990835000   
C      0.074860940000     0.299929250000     0.041753210000   
C      0.016219825000     0.311486335000     0.052594440000   
C      0.083995565000     0.260808585000     0.033305040000   
C      0.047579190000     0.243134585000     0.016462435000   
C      0.128634915000     0.236985250000     0.043790215000   
C      0.126344675000     0.319270165000     0.039788900000   
C      0.128636975000     0.248799085000     0.102853000000   
C      0.153659875000     0.272290085000     0.123494000000   
C      0.287560250000     0.398684085000     0.059364610000   
C      0.420853000000     0.305533415000     0.047211635000   
C      0.402237375000     0.323023000000     0.077450290000   
C      0.437601250000     0.339949500000     0.093475365000   
C      0.476282125000     0.291196835000     0.039973060000   
C      0.441604750000     0.231079665000     0.020691340000   
C      0.239108250000     0.229639165000     0.008523585000   
C      0.262156250000     0.240993250000     0.039526025000   
C      0.489914625000     0.255551915000     0.023099690000   
C      0.220470000000     0.414032835000     0.023840635000   
C      0.493823625000     0.336838500000     0.079446310000   
C      0.095819265000     0.486424585000     0.025573010000   
C      0.149091725000     0.496338835000     0.033781585000   
C      0.227708500000     0.454207500000     0.022205785000   
C      0.300629250000     0.437826835000     0.053693425000   
C      0.269530000000     0.465995085000     0.035882440000   
C      0.135337650000     0.138260915000     0.480545915000   
C      0.148817785000     0.114251085000     0.449150085000   
C      0.297781000000     0.143982000000     0.494554835000   
C      0.073557250000     0.216207500000     0.492162335000   
C      0.040865190000     0.239456835000     0.442135915000   
C      0.010886760000     0.229800665000     0.413732165000   
C      0.171039000000     0.382101250000     0.455299165000   
C      0.185694750000     0.382562415000     0.416369250000   
C      0.128802300000     0.200091415000     0.494181165000   
C      0.205106375000     0.404889415000     0.471564750000   
H      0.013080835000     0.103328250000     0.073509090000   
H      0.023191750000     0.149261165000     0.082394085000   
H      0.008765830000     0.142171750000     0.043693840000   
H      0.145502110000     0.028511025000     0.033135875000   
H      0.045933850000     0.033655400000     0.048896785000   
H      0.214358250000     0.098103075000     0.165975835000   
H      0.152161875000     0.124160835000     0.001848875000   
H      0.422833125000     0.138997750000     0.032920085000   
H      0.419276125000     0.098330540000     0.064350590000   
H      0.429647875000     0.178720000000     0.081938090000   
H      0.431613250000     0.137365500000     0.110688415000   
H      0.306494875000     0.043371615000     0.123217585000   
H      0.253130750000     0.072715585000     0.102480585000   
H      0.336132375000     0.102860915000     0.140687750000   
H      0.277121125000     0.131549085000     0.123376415000   
H      0.257531000000     0.121229835000     0.187593250000   
H      0.273367625000     0.069935815000     0.183656750000   
H      0.017862215000     0.349662165000     0.092070800000   
H      0.136141085000     0.219018085000     0.114536835000   
H      0.087020900000     0.260299915000     0.104429250000   
H      0.136730325000     0.270565915000     0.149715335000   
H      0.145405040000     0.301589165000     0.116175915000   
H      0.196383000000     0.263511000000     0.121083000000   
H      0.282047625000     0.216235250000     0.051804475000   
H      0.337801875000     0.390118750000     0.093342800000   
H      0.364340125000     0.322150415000     0.087948490000   
H      0.421465750000     0.354475250000     0.115381250000   
H      0.391332750000     0.297385750000     0.032766790000   
H      0.288647875000     0.262901250000     0.029165940000   
H      0.239304125000     0.254889415000     0.058548690000   
H      0.100534800000     0.454136585000     0.026338990000   
H      0.057481975000     0.490215500000     0.076269350000   
H      0.019033135000     0.493841500000     0.044169475000   
H      0.090910610000     0.496447665000     0.001349360000   
H      0.154403750000     0.485829000000     0.060929575000   
H      0.332466625000     0.446194250000     0.065965285000   
H      0.036367475000     0.206620000000     0.397725000000   
H      0.001195980000     0.254305085000     0.397239000000   
H      0.089489100000     0.142685250000     0.487676415000   
H      0.130091325000     0.087390915000     0.455759665000   
H      0.131598125000     0.130185000000     0.426870750000   
H      0.261058500000     0.152445835000     0.453152085000   
H      0.253402000000     0.098409690000     0.483682165000   
H      0.193808625000     0.106003665000     0.442073415000   
H      0.081306725000     0.246611000000     0.428973000000   
H      0.015373165000     0.265073835000     0.455007000000   
H      0.248753625000     0.390061500000     0.466731500000   
H      0.180083375000     0.352274165000     0.466300750000   
H      0.158630375000     0.365360335000     0.405921585000   
H      0.229030250000     0.369362415000     0.408293415000   
H      0.271457625000     0.221871665000     0.488850000000   
H      0.215956375000     0.254087250000     0.494789335000   
H      0.127528250000     0.394905335000     0.463368750000   
H      0.471403625000     0.220707000000     0.426096915000   
H      0.200711625000     0.434799415000     0.459213750000   
H      0.177451625000     0.412623500000     0.404916335000   
N      0.323774375000     0.159581750000     0.018639810000   
N      0.249837000000     0.384848335000     0.041806915000   
O      0.210500125000     0.197137915000     0.018448600000   
O      0.355211000000     0.146304415000     0.072104375000   
O      0.335001500000     0.073589860000     0.079933735000   
O      0.170185250000     0.311331335000     0.015459185000   
O      0.145678400000     0.332618415000     0.065504860000   
O      0.156133625000     0.248582835000     0.068588190000   
O      0.182059750000     0.404592750000     0.006577000000   
O      0.308102625000     0.377016665000     0.085902010000   
O      0.400006250000     0.229001250000     0.047014465000   
O      0.191702250000     0.482030585000     0.007620685000   
O      0.288474500000     0.164305085000     0.463994335000   
O      0.156813375000     0.173617665000     0.471445915000   
O      0.047891340000     0.206595500000     0.465684835000   
O      0.425856750000     0.222969835000     0.491437335000   
Zn     0.226425000000     0.323893335000     0.041092865000   
Zn     0.352122000000     0.220113500000     0.016820265000   
C      0.051664350000     0.001139745000     0.549601790000   
C      0.001617120000     0.135342585000     0.569240225000   
C      0.155488875000     0.209836250000     0.520128590000   
C      0.276896500000     0.007165080000     0.533244750000   
C      0.277880250000     0.107159585000     0.501221985000   
C      0.314443875000     0.097438375000     0.553540765000   
C      0.327496250000     0.136073165000     0.548494315000   
C      0.290835625000     0.082384950000     0.528904325000   
C      0.283117375000     0.041477390000     0.531079660000   
C      0.409798375000     0.130831665000     0.560938165000   
C      0.442075625000     0.147035915000     0.583187350000   
C      0.294601875000     0.071590385000     0.609594915000   
C      0.293881000000     0.103364500000     0.635173500000   
C      0.257523375000     0.097368175000     0.669990835000   
C      0.074860940000     0.299929250000     0.541753210000   
C      0.016219825000     0.311486335000     0.552594440000   
C      0.083995565000     0.260808585000     0.533305040000   
C      0.047579190000     0.243134585000     0.516462435000   
C      0.128634915000     0.236985250000     0.543790215000   
C      0.126344675000     0.319270165000     0.539788900000   
C      0.128636975000     0.248799085000     0.602853000000   
C      0.153659875000     0.272290085000     0.623494000000   
C      0.287560250000     0.398684085000     0.559364610000   
C      0.420853000000     0.305533415000     0.547211635000   
C      0.402237375000     0.323023000000     0.577450290000   
C      0.437601250000     0.339949500000     0.593475365000   
C      0.476282125000     0.291196835000     0.539973060000   
C      0.441604750000     0.231079665000     0.520691340000   
C      0.239108250000     0.229639165000     0.508523585000   
C      0.262156250000     0.240993250000     0.539526025000   
C      0.489914625000     0.255551915000     0.523099690000   
C      0.220470000000     0.414032835000     0.523840635000   
C      0.493823625000     0.336838500000     0.579446310000   
C      0.095819265000     0.486424585000     0.525573010000   
C      0.149091725000     0.496338835000     0.533781585000   
C      0.227708500000     0.454207500000     0.522205785000   
C      0.300629250000     0.437826835000     0.553693425000   
C      0.269530000000     0.465995085000     0.535882440000   
C      0.135337650000     0.138260915000     0.980545915000   
C      0.148817785000     0.114251085000     0.949150085000   
C      0.297781000000     0.143982000000     0.994554835000   
C      0.073557250000     0.216207500000     0.992162335000   
C      0.040865190000     0.239456835000     0.942135915000   
C      0.010886760000     0.229800665000     0.913732165000   
C      0.171039000000     0.382101250000     0.955299165000   
C      0.185694750000     0.382562415000     0.916369250000   
C      0.128802300000     0.200091415000     0.994181165000   
C      0.205106375000     0.404889415000     0.971564750000   
H      0.013080835000     0.103328250000     0.573509090000   
H      0.023191750000     0.149261165000     0.582394085000   
H      0.008765830000     0.142171750000     0.543693840000   
H      0.145502110000     0.028511025000     0.533135875000   
H      0.045933850000     0.033655400000     0.548896785000   
H      0.214358250000     0.098103075000     0.665975835000   
H      0.152161875000     0.124160835000     0.501848875000   
H      0.422833125000     0.138997750000     0.532920085000   
H      0.419276125000     0.098330540000     0.564350590000   
H      0.429647875000     0.178720000000     0.581938090000   
H      0.431613250000     0.137365500000     0.610688415000   
H      0.306494875000     0.043371615000     0.623217585000   
H      0.253130750000     0.072715585000     0.602480585000   
H      0.336132375000     0.102860915000     0.640687750000   
H      0.277121125000     0.131549085000     0.623376415000   
H      0.257531000000     0.121229835000     0.687593250000   
H      0.273367625000     0.069935815000     0.683656750000   
H      0.017862215000     0.349662165000     0.592070800000   
H      0.136141085000     0.219018085000     0.614536835000   
H      0.087020900000     0.260299915000     0.604429250000   
H      0.136730325000     0.270565915000     0.649715335000   
H      0.145405040000     0.301589165000     0.616175915000   
H      0.196383000000     0.263511000000     0.621083000000   
H      0.282047625000     0.216235250000     0.551804475000   
H      0.337801875000     0.390118750000     0.593342800000   
H      0.364340125000     0.322150415000     0.587948490000   
H      0.421465750000     0.354475250000     0.615381250000   
H      0.391332750000     0.297385750000     0.532766790000   
H      0.288647875000     0.262901250000     0.529165940000   
H      0.239304125000     0.254889415000     0.558548690000   
H      0.100534800000     0.454136585000     0.526338990000   
H      0.057481975000     0.490215500000     0.576269350000   
H      0.019033135000     0.493841500000     0.544169475000   
H      0.090910610000     0.496447665000     0.501349360000   
H      0.154403750000     0.485829000000     0.560929575000   
H      0.332466625000     0.446194250000     0.565965285000   
H      0.036367475000     0.206620000000     0.897725000000   
H      0.001195980000     0.254305085000     0.897239000000   
H      0.089489100000     0.142685250000     0.987676415000   
H      0.130091325000     0.087390915000     0.955759665000   
H      0.131598125000     0.130185000000     0.926870750000   
H      0.261058500000     0.152445835000     0.953152085000   
H      0.253402000000     0.098409690000     0.983682165000   
H      0.193808625000     0.106003665000     0.942073415000   
H      0.081306725000     0.246611000000     0.928973000000   
H      0.015373165000     0.265073835000     0.955007000000   
H      0.248753625000     0.390061500000     0.966731500000   
H      0.180083375000     0.352274165000     0.966300750000   
H      0.158630375000     0.365360335000     0.905921585000   
H      0.229030250000     0.369362415000     0.908293415000   
H      0.271457625000     0.221871665000     0.988850000000   
H      0.215956375000     0.254087250000     0.994789335000   
H      0.127528250000     0.394905335000     0.963368750000   
H      0.471403625000     0.220707000000     0.926096915000   
H      0.200711625000     0.434799415000     0.959213750000   
H      0.177451625000     0.412623500000     0.904916335000   
N      0.323774375000     0.159581750000     0.518639810000   
N      0.249837000000     0.384848335000     0.541806915000   
O      0.210500125000     0.197137915000     0.518448600000   
O      0.355211000000     0.146304415000     0.572104375000   
O      0.335001500000     0.073589860000     0.579933735000   
O      0.170185250000     0.311331335000     0.515459185000   
O      0.145678400000     0.332618415000     0.565504860000   
O      0.156133625000     0.248582835000     0.568588190000   
O      0.182059750000     0.404592750000     0.506577000000   
O      0.308102625000     0.377016665000     0.585902010000   
O      0.400006250000     0.229001250000     0.547014465000   
O      0.191702250000     0.482030585000     0.507620685000   
O      0.288474500000     0.164305085000     0.963994335000   
O      0.156813375000     0.173617665000     0.971445915000   
O      0.047891340000     0.206595500000     0.965684835000   
O      0.425856750000     0.222969835000     0.991437335000   
Zn     0.226425000000     0.323893335000     0.541092865000   
Zn     0.352122000000     0.220113500000     0.516820265000   
C      0.051664350000     0.501139745000     0.049601790000   
C      0.001617120000     0.635342585000     0.069240225000   
C      0.155488875000     0.709836250000     0.020128590000   
C      0.276896500000     0.507165080000     0.033244750000   
C      0.277880250000     0.607159585000     0.001221985000   
C      0.314443875000     0.597438375000     0.053540765000   
C      0.327496250000     0.636073165000     0.048494315000   
C      0.290835625000     0.582384950000     0.028904325000   
C      0.283117375000     0.541477390000     0.031079660000   
C      0.409798375000     0.630831665000     0.060938165000   
C      0.442075625000     0.647035915000     0.083187350000   
C      0.294601875000     0.571590385000     0.109594915000   
C      0.293881000000     0.603364500000     0.135173500000   
C      0.257523375000     0.597368175000     0.169990835000   
C      0.074860940000     0.799929250000     0.041753210000   
C      0.016219825000     0.811486335000     0.052594440000   
C      0.083995565000     0.760808585000     0.033305040000   
C      0.047579190000     0.743134585000     0.016462435000   
C      0.128634915000     0.736985250000     0.043790215000   
C      0.126344675000     0.819270165000     0.039788900000   
C      0.128636975000     0.748799085000     0.102853000000   
C      0.153659875000     0.772290085000     0.123494000000   
C      0.287560250000     0.898684085000     0.059364610000   
C      0.420853000000     0.805533415000     0.047211635000   
C      0.402237375000     0.823023000000     0.077450290000   
C      0.437601250000     0.839949500000     0.093475365000   
C      0.476282125000     0.791196835000     0.039973060000   
C      0.441604750000     0.731079665000     0.020691340000   
C      0.239108250000     0.729639165000     0.008523585000   
C      0.262156250000     0.740993250000     0.039526025000   
C      0.489914625000     0.755551915000     0.023099690000   
C      0.220470000000     0.914032835000     0.023840635000   
C      0.493823625000     0.836838500000     0.079446310000   
C      0.095819265000     0.986424585000     0.025573010000   
C      0.149091725000     0.996338835000     0.033781585000   
C      0.227708500000     0.954207500000     0.022205785000   
C      0.300629250000     0.937826835000     0.053693425000   
C      0.269530000000     0.965995085000     0.035882440000   
C      0.135337650000     0.638260915000     0.480545915000   
C      0.148817785000     0.614251085000     0.449150085000   
C      0.297781000000     0.643982000000     0.494554835000   
C      0.073557250000     0.716207500000     0.492162335000   
C      0.040865190000     0.739456835000     0.442135915000   
C      0.010886760000     0.729800665000     0.413732165000   
C      0.171039000000     0.882101250000     0.455299165000   
C      0.185694750000     0.882562415000     0.416369250000   
C      0.128802300000     0.700091415000     0.494181165000   
C      0.205106375000     0.904889415000     0.471564750000   
H      0.013080835000     0.603328250000     0.073509090000   
H      0.023191750000     0.649261165000     0.082394085000   
H      0.008765830000     0.642171750000     0.043693840000   
H      0.145502110000     0.528511025000     0.033135875000   
H      0.045933850000     0.533655400000     0.048896785000   
H      0.214358250000     0.598103075000     0.165975835000   
H      0.152161875000     0.624160835000     0.001848875000   
H      0.422833125000     0.638997750000     0.032920085000   
H      0.419276125000     0.598330540000     0.064350590000   
H      0.429647875000     0.678720000000     0.081938090000   
H      0.431613250000     0.637365500000     0.110688415000   
H      0.306494875000     0.543371615000     0.123217585000   
H      0.253130750000     0.572715585000     0.102480585000   
H      0.336132375000     0.602860915000     0.140687750000   
H      0.277121125000     0.631549085000     0.123376415000   
H      0.257531000000     0.621229835000     0.187593250000   
H      0.273367625000     0.569935815000     0.183656750000   
H      0.017862215000     0.849662165000     0.092070800000   
H      0.136141085000     0.719018085000     0.114536835000   
H      0.087020900000     0.760299915000     0.104429250000   
H      0.136730325000     0.770565915000     0.149715335000   
H      0.145405040000     0.801589165000     0.116175915000   
H      0.196383000000     0.763511000000     0.121083000000   
H      0.282047625000     0.716235250000     0.051804475000   
H      0.337801875000     0.890118750000     0.093342800000   
H      0.364340125000     0.822150415000     0.087948490000   
H      0.421465750000     0.854475250000     0.115381250000   
H      0.391332750000     0.797385750000     0.032766790000   
H      0.288647875000     0.762901250000     0.029165940000   
H      0.239304125000     0.754889415000     0.058548690000   
H      0.100534800000     0.954136585000     0.026338990000   
H      0.057481975000     0.990215500000     0.076269350000   
H      0.019033135000     0.993841500000     0.044169475000   
H      0.090910610000     0.996447665000     0.001349360000   
H      0.154403750000     0.985829000000     0.060929575000   
H      0.332466625000     0.946194250000     0.065965285000   
H      0.036367475000     0.706620000000     0.397725000000   
H      0.001195980000     0.754305085000     0.397239000000   
H      0.089489100000     0.642685250000     0.487676415000   
H      0.130091325000     0.587390915000     0.455759665000   
H      0.131598125000     0.630185000000     0.426870750000   
H      0.261058500000     0.652445835000     0.453152085000   
H      0.253402000000     0.598409690000     0.483682165000   
H      0.193808625000     0.606003665000     0.442073415000   
H      0.081306725000     0.746611000000     0.428973000000   
H      0.015373165000     0.765073835000     0.455007000000   
H      0.248753625000     0.890061500000     0.466731500000   
H      0.180083375000     0.852274165000     0.466300750000   
H      0.158630375000     0.865360335000     0.405921585000   
H      0.229030250000     0.869362415000     0.408293415000   
H      0.271457625000     0.721871665000     0.488850000000   
H      0.215956375000     0.754087250000     0.494789335000   
H      0.127528250000     0.894905335000     0.463368750000   
H      0.471403625000     0.720707000000     0.426096915000   
H      0.200711625000     0.934799415000     0.459213750000   
H      0.177451625000     0.912623500000     0.404916335000   
N      0.323774375000     0.659581750000     0.018639810000   
N      0.249837000000     0.884848335000     0.041806915000   
O      0.210500125000     0.697137915000     0.018448600000   
O      0.355211000000     0.646304415000     0.072104375000   
O      0.335001500000     0.573589860000     0.079933735000   
O      0.170185250000     0.811331335000     0.015459185000   
O      0.145678400000     0.832618415000     0.065504860000   
O      0.156133625000     0.748582835000     0.068588190000   
O      0.182059750000     0.904592750000     0.006577000000   
O      0.308102625000     0.877016665000     0.085902010000   
O      0.400006250000     0.729001250000     0.047014465000   
O      0.191702250000     0.982030585000     0.007620685000   
O      0.288474500000     0.664305085000     0.463994335000   
O      0.156813375000     0.673617665000     0.471445915000   
O      0.047891340000     0.706595500000     0.465684835000   
O      0.425856750000     0.722969835000     0.491437335000   
Zn     0.226425000000     0.823893335000     0.041092865000   
Zn     0.352122000000     0.720113500000     0.016820265000   
C      0.051664350000     0.501139745000     0.549601790000   
C      0.001617120000     0.635342585000     0.569240225000   
C      0.155488875000     0.709836250000     0.520128590000   
C      0.276896500000     0.507165080000     0.533244750000   
C      0.277880250000     0.607159585000     0.501221985000   
C      0.314443875000     0.597438375000     0.553540765000   
C      0.327496250000     0.636073165000     0.548494315000   
C      0.290835625000     0.582384950000     0.528904325000   
C      0.283117375000     0.541477390000     0.531079660000   
C      0.409798375000     0.630831665000     0.560938165000   
C      0.442075625000     0.647035915000     0.583187350000   
C      0.294601875000     0.571590385000     0.609594915000   
C      0.293881000000     0.603364500000     0.635173500000   
C      0.257523375000     0.597368175000     0.669990835000   
C      0.074860940000     0.799929250000     0.541753210000   
C      0.016219825000     0.811486335000     0.552594440000   
C      0.083995565000     0.760808585000     0.533305040000   
C      0.047579190000     0.743134585000     0.516462435000   
C      0.128634915000     0.736985250000     0.543790215000   
C      0.126344675000     0.819270165000     0.539788900000   
C      0.128636975000     0.748799085000     0.602853000000   
C      0.153659875000     0.772290085000     0.623494000000   
C      0.287560250000     0.898684085000     0.559364610000   
C      0.420853000000     0.805533415000     0.547211635000   
C      0.402237375000     0.823023000000     0.577450290000   
C      0.437601250000     0.839949500000     0.593475365000   
C      0.476282125000     0.791196835000     0.539973060000   
C      0.441604750000     0.731079665000     0.520691340000   
C      0.239108250000     0.729639165000     0.508523585000   
C      0.262156250000     0.740993250000     0.539526025000   
C      0.489914625000     0.755551915000     0.523099690000   
C      0.220470000000     0.914032835000     0.523840635000   
C      0.493823625000     0.836838500000     0.579446310000   
C      0.095819265000     0.986424585000     0.525573010000   
C      0.149091725000     0.996338835000     0.533781585000   
C      0.227708500000     0.954207500000     0.522205785000   
C      0.300629250000     0.937826835000     0.553693425000   
C      0.269530000000     0.965995085000     0.535882440000   
C      0.135337650000     0.638260915000     0.980545915000   
C      0.148817785000     0.614251085000     0.949150085000   
C      0.297781000000     0.643982000000     0.994554835000   
C      0.073557250000     0.716207500000     0.992162335000   
C      0.040865190000     0.739456835000     0.942135915000   
C      0.010886760000     0.729800665000     0.913732165000   
C      0.171039000000     0.882101250000     0.955299165000   
C      0.185694750000     0.882562415000     0.916369250000   
C      0.128802300000     0.700091415000     0.994181165000   
C      0.205106375000     0.904889415000     0.971564750000   
H      0.013080835000     0.603328250000     0.573509090000   
H      0.023191750000     0.649261165000     0.582394085000   
H      0.008765830000     0.642171750000     0.543693840000   
H      0.145502110000     0.528511025000     0.533135875000   
H      0.045933850000     0.533655400000     0.548896785000   
H      0.214358250000     0.598103075000     0.665975835000   
H      0.152161875000     0.624160835000     0.501848875000   
H      0.422833125000     0.638997750000     0.532920085000   
H      0.419276125000     0.598330540000     0.564350590000   
H      0.429647875000     0.678720000000     0.581938090000   
H      0.431613250000     0.637365500000     0.610688415000   
H      0.306494875000     0.543371615000     0.623217585000   
H      0.253130750000     0.572715585000     0.602480585000   
H      0.336132375000     0.602860915000     0.640687750000   
H      0.277121125000     0.631549085000     0.623376415000   
H      0.257531000000     0.621229835000     0.687593250000   
H      0.273367625000     0.569935815000     0.683656750000   
H      0.017862215000     0.849662165000     0.592070800000   
H      0.136141085000     0.719018085000     0.614536835000   
H      0.087020900000     0.760299915000     0.604429250000   
H      0.136730325000     0.770565915000     0.649715335000   
H      0.145405040000     0.801589165000     0.616175915000   
H      0.196383000000     0.763511000000     0.621083000000   
H      0.282047625000     0.716235250000     0.551804475000   
H      0.337801875000     0.890118750000     0.593342800000   
H      0.364340125000     0.822150415000     0.587948490000   
H      0.421465750000     0.854475250000     0.615381250000   
H      0.391332750000     0.797385750000     0.532766790000   
H      0.288647875000     0.762901250000     0.529165940000   
H      0.239304125000     0.754889415000     0.558548690000   
H      0.100534800000     0.954136585000     0.526338990000   
H      0.057481975000     0.990215500000     0.576269350000   
H      0.019033135000     0.993841500000     0.544169475000   
H      0.090910610000     0.996447665000     0.501349360000   
H      0.154403750000     0.985829000000     0.560929575000   
H      0.332466625000     0.946194250000     0.565965285000   
H      0.036367475000     0.706620000000     0.897725000000   
H      0.001195980000     0.754305085000     0.897239000000   
H      0.089489100000     0.642685250000     0.987676415000   
H      0.130091325000     0.587390915000     0.955759665000   
H      0.131598125000     0.630185000000     0.926870750000   
H      0.261058500000     0.652445835000     0.953152085000   
H      0.253402000000     0.598409690000     0.983682165000   
H      0.193808625000     0.606003665000     0.942073415000   
H      0.081306725000     0.746611000000     0.928973000000   
H      0.015373165000     0.765073835000     0.955007000000   
H      0.248753625000     0.890061500000     0.966731500000   
H      0.180083375000     0.852274165000     0.966300750000   
H      0.158630375000     0.865360335000     0.905921585000   
H      0.229030250000     0.869362415000     0.908293415000   
H      0.271457625000     0.721871665000     0.988850000000   
H      0.215956375000     0.754087250000     0.994789335000   
H      0.127528250000     0.894905335000     0.963368750000   
H      0.471403625000     0.720707000000     0.926096915000   
H      0.200711625000     0.934799415000     0.959213750000   
H      0.177451625000     0.912623500000     0.904916335000   
N      0.323774375000     0.659581750000     0.518639810000   
N      0.249837000000     0.884848335000     0.541806915000   