%BLOCK LATTICE_CART
ang    # angstrom units
  12.207980000000    0.000000000000     0.000000000000   
  1.804273845321     12.972033280839    0.000000000000   
 -1.895853133904    -0.196919404961     21.954605592875  
%ENDBLOCK LATTICE_CART

%BLOCK POSITIONS_FRAC
Zn     0.079389220000     0.471882250000     0.491860270000   
Zn     0.177244380000     0.031395510000     0.485462450000   
H      0.133888150000     0.097734565000     0.297213880000   
H      0.123230750000     0.407536800000     0.177881050000   
H      0.165867180000     0.129490510000     0.251345400000   
H      0.091251655000     0.375780880000     0.223749565000   
H      0.305748520000     0.116094150000     0.119778650000   
H      0.451366300000     0.389187250000     0.355312500000   
H      0.153530800000     0.088189745000     0.068903000000   
H      0.103588110000     0.417081625000     0.406191950000   
H      0.120834255000     0.056678555000     0.115222855000   
H      0.136284665000     0.448592800000     0.359872050000   
H      0.377024300000     0.400926900000     0.470501400000   
H      0.379544675000     0.103674890000     0.005388440000   
H      0.006639125000     0.408758880000     0.497065800000   
H      0.249695120000     0.095804450000     0.478639500000   
H      0.020816030000     0.087737150000     0.002623020000   
H      0.235585140000     0.417043100000     0.473262370000   
H      0.242669835000     0.241101830000     0.489608400000   
H      0.012052845000     0.264764850000     0.484929235000   
H      0.147239325000     0.120404500000     0.008950470000   
H      0.107304800000     0.385538350000     0.465537725000   
H      0.193271070000     0.326795150000     0.475084650000   
H      0.061360535000     0.179077400000     0.499233485000   
C      0.005942775000     0.379442215000     0.412073200000   
C      0.251165250000     0.125832380000     0.063026400000   
C      0.084832380000     0.426132200000     0.278071350000   
C      0.172288225000     0.079140490000     0.197024540000   
C      0.097707210000     0.005373370000     0.303660450000   
C      0.159411700000     0.499897950000     0.171434475000   
C      0.117239505000     0.024237970000     0.277454250000   
C      0.139864460000     0.481046600000     0.197641625000   
C      0.119206825000     0.493377985000     0.250928350000   
C      0.137912110000     0.011893350000     0.224166585000   
C      0.102552245000     0.444042350000     0.251105100000   
C      0.154566650000     0.061228970000     0.223989850000   
C      0.134494575000     0.073275170000     0.277096550000   
C      0.122624345000     0.431996165000     0.197998375000   
C      0.152886735000     0.091542780000     0.250704850000   
C      0.104232170000     0.413728550000     0.224390060000   
C      0.247360690000     0.083781050000     0.144776075000   
C      0.009754175000     0.421500350000     0.330315050000   
C      0.265332550000     0.103164135000     0.118508025000   
C      0.491786350000     0.402107250000     0.356586900000   
C      0.232075950000     0.104921355000     0.090764695000   
C      0.025042920000     0.400350000000     0.384330200000   
C      0.180202450000     0.087113400000     0.089896925000   
C      0.076916425000     0.418157950000     0.385198000000   
C      0.161515490000     0.069018365000     0.116331295000   
C      0.095603415000     0.436253000000     0.358763650000   
C      0.194801735000     0.067101875000     0.144087400000   
C      0.062313155000     0.438179500000     0.331003750000   
C      0.358303220000     0.439838380000     0.475388300000   
C      0.398266100000     0.064784900000     0.000433205000   
C      0.300252765000     0.450672715000     0.473041750000   
C      0.456306050000     0.053930710000     0.002865195000   
C      0.306196250000     0.037904160000     0.487231165000   
C      0.450397580000     0.466782700000     0.488423230000   
C      0.365090900000     0.026930355000     0.491063300000   
C      0.391492750000     0.477722600000     0.484666975000   
C      0.253802420000     0.138015835000     0.004200340000   
C      0.000820970000     0.367954880000     0.470774680000   
C      0.202059050000     0.176113770000     0.000100015000   
C      0.052594385000     0.329843900000     0.474571900000   
C      0.154169530000     0.312675650000     0.477381675000   
C      0.100482685000     0.193206950000     0.497000700000   
C      0.104648220000     0.346274750000     0.471862150000   
C      0.149967685000     0.159652325000     0.002633630000   
C      0.051504230000     0.278208165000     0.482558000000   
C      0.203191190000     0.227689130000     0.491956300000   
C      0.101435090000     0.244247840000     0.488448770000   
C      0.153255865000     0.261633550000     0.485975500000   
N      0.081911310000     0.456966850000     0.303690300000   
N      0.175207550000     0.048304540000     0.171404600000   
N      0.482894600000     0.005005070000     0.497245220000   
N      0.273649930000     0.499656975000     0.478533350000   
O      0.285961900000     0.159045280000     0.066612085000   
O      0.471157000000     0.346226065000     0.408482850000   
O      0.024426455000     0.395876400000     0.438473800000   
O      0.232692450000     0.109394960000     0.036621125000   
O      0.071326995000     0.377943900000     0.278721570000   
O      0.185791880000     0.127327450000     0.196373375000   
O      0.093921915000     0.035585910000     0.328766200000   
O      0.163196950000     0.469685400000     0.146328715000   
O      0.473428650000     0.416863750000     0.482954650000   
O      0.283290980000     0.087943150000     0.492472915000   
O      0.484642030000     0.094482625000     0.011084080000   
O      0.271949500000     0.410012550000     0.465055700000   
O      0.245531590000     0.088848710000     0.000872495000   
O      0.009075140000     0.417108050000     0.474238275000   
O      0.302740800000     0.155651660000     0.010039805000   
O      0.451866030000     0.350305020000     0.465070935000   
F      0.281552730000     0.080735600000     0.170826880000   
F      0.475566150000     0.424535720000     0.304268050000   
Zn     0.079389220000     0.471882250000     0.991860270000   
Zn     0.177244380000     0.031395510000     0.985462450000   
H      0.133888150000     0.097734565000     0.797213880000   
H      0.123230750000     0.407536800000     0.677881050000   
H      0.165867180000     0.129490510000     0.751345400000   
H      0.091251655000     0.375780880000     0.723749565000   
H      0.305748520000     0.116094150000     0.619778650000   
H      0.451366300000     0.389187250000     0.855312500000   
H      0.153530800000     0.088189745000     0.568903000000   
H      0.103588110000     0.417081625000     0.906191950000   
H      0.120834255000     0.056678555000     0.615222855000   
H      0.136284665000     0.448592800000     0.859872050000   
H      0.377024300000     0.400926900000     0.970501400000   
H      0.379544675000     0.103674890000     0.505388440000   
H      0.006639125000     0.408758880000     0.997065800000   
H      0.249695120000     0.095804450000     0.978639500000   
H      0.020816030000     0.087737150000     0.502623020000   
H      0.235585140000     0.417043100000     0.973262370000   
H      0.242669835000     0.241101830000     0.989608400000   
H      0.012052845000     0.264764850000     0.984929235000   
H      0.147239325000     0.120404500000     0.508950470000   
H      0.107304800000     0.385538350000     0.965537725000   
H      0.193271070000     0.326795150000     0.975084650000   
H      0.061360535000     0.179077400000     0.999233485000   
C      0.005942775000     0.379442215000     0.912073200000   
C      0.251165250000     0.125832380000     0.563026400000   
C      0.084832380000     0.426132200000     0.778071350000   
C      0.172288225000     0.079140490000     0.697024540000   
C      0.097707210000     0.005373370000     0.803660450000   
C      0.159411700000     0.499897950000     0.671434475000   
C      0.117239505000     0.024237970000     0.777454250000   
C      0.139864460000     0.481046600000     0.697641625000   
C      0.119206825000     0.493377985000     0.750928350000   
C      0.137912110000     0.011893350000     0.724166585000   
C      0.102552245000     0.444042350000     0.751105100000   
C      0.154566650000     0.061228970000     0.723989850000   
C      0.134494575000     0.073275170000     0.777096550000   
C      0.122624345000     0.431996165000     0.697998375000   
C      0.152886735000     0.091542780000     0.750704850000   
C      0.104232170000     0.413728550000     0.724390060000   
C      0.247360690000     0.083781050000     0.644776075000   
C      0.009754175000     0.421500350000     0.830315050000   
C      0.265332550000     0.103164135000     0.618508025000   
C      0.491786350000     0.402107250000     0.856586900000   
C      0.232075950000     0.104921355000     0.590764695000   
C      0.025042920000     0.400350000000     0.884330200000   
C      0.180202450000     0.087113400000     0.589896925000   
C      0.076916425000     0.418157950000     0.885198000000   
C      0.161515490000     0.069018365000     0.616331295000   
C      0.095603415000     0.436253000000     0.858763650000   
C      0.194801735000     0.067101875000     0.644087400000   
C      0.062313155000     0.438179500000     0.831003750000   
C      0.358303220000     0.439838380000     0.975388300000   
C      0.398266100000     0.064784900000     0.500433205000   
C      0.300252765000     0.450672715000     0.973041750000   
C      0.456306050000     0.053930710000     0.502865195000   
C      0.306196250000     0.037904160000     0.987231165000   
C      0.450397580000     0.466782700000     0.988423230000   
C      0.365090900000     0.026930355000     0.991063300000   
C      0.391492750000     0.477722600000     0.984666975000   
C      0.253802420000     0.138015835000     0.504200340000   
C      0.000820970000     0.367954880000     0.970774680000   
C      0.202059050000     0.176113770000     0.500100015000   
C      0.052594385000     0.329843900000     0.974571900000   
C      0.154169530000     0.312675650000     0.977381675000   
C      0.100482685000     0.193206950000     0.997000700000   
C      0.104648220000     0.346274750000     0.971862150000   
C      0.149967685000     0.159652325000     0.502633630000   
C      0.051504230000     0.278208165000     0.982558000000   
C      0.203191190000     0.227689130000     0.991956300000   
C      0.101435090000     0.244247840000     0.988448770000   
C      0.153255865000     0.261633550000     0.985975500000   
N      0.081911310000     0.456966850000     0.803690300000   
N      0.175207550000     0.048304540000     0.671404600000   
N      0.482894600000     0.005005070000     0.997245220000   
N      0.273649930000     0.499656975000     0.978533350000   
O      0.285961900000     0.159045280000     0.566612085000   
O      0.471157000000     0.346226065000     0.908482850000   
O      0.024426455000     0.395876400000     0.938473800000   
O      0.232692450000     0.109394960000     0.536621125000   
O      0.071326995000     0.377943900000     0.778721570000   
O      0.185791880000     0.127327450000     0.696373375000   
O      0.093921915000     0.035585910000     0.828766200000   
O      0.163196950000     0.469685400000     0.646328715000   
O      0.473428650000     0.416863750000     0.982954650000   
O      0.283290980000     0.087943150000     0.992472915000   
O      0.484642030000     0.094482625000     0.511084080000   
O      0.271949500000     0.410012550000     0.965055700000   
O      0.245531590000     0.088848710000     0.500872495000   
O      0.009075140000     0.417108050000     0.974238275000   
O      0.302740800000     0.155651660000     0.510039805000   
O      0.451866030000     0.350305020000     0.965070935000   
F      0.281552730000     0.080735600000     0.670826880000   
F      0.475566150000     0.424535720000     0.804268050000   
Zn     0.079389220000     0.971882250000     0.491860270000   
Zn     0.177244380000     0.531395510000     0.485462450000   
H      0.133888150000     0.597734565000     0.297213880000   
H      0.123230750000     0.907536800000     0.177881050000   
H      0.165867180000     0.629490510000     0.251345400000   
H      0.091251655000     0.875780880000     0.223749565000   
H      0.305748520000     0.616094150000     0.119778650000   
H      0.451366300000     0.889187250000     0.355312500000   
H      0.153530800000     0.588189745000     0.068903000000   
H      0.103588110000     0.917081625000     0.406191950000   
H      0.120834255000     0.556678555000     0.115222855000   
H      0.136284665000     0.948592800000     0.359872050000   
H      0.377024300000     0.900926900000     0.470501400000   
H      0.379544675000     0.603674890000     0.005388440000   
H      0.006639125000     0.908758880000     0.497065800000   
H      0.249695120000     0.595804450000     0.478639500000   
H      0.020816030000     0.587737150000     0.002623020000   
H      0.235585140000     0.917043100000     0.473262370000   
H      0.242669835000     0.741101830000     0.489608400000   
H      0.012052845000     0.764764850000     0.484929235000   
H      0.147239325000     0.620404500000     0.008950470000   
H      0.107304800000     0.885538350000     0.465537725000   
H      0.193271070000     0.826795150000     0.475084650000   
H      0.061360535000     0.679077400000     0.499233485000   
C      0.005942775000     0.879442215000     0.412073200000   
C      0.251165250000     0.625832380000     0.063026400000   
C      0.084832380000     0.926132200000     0.278071350000   
C      0.172288225000     0.579140490000     0.197024540000   
C      0.097707210000     0.505373370000     0.303660450000   
C      0.159411700000     0.999897950000     0.171434475000   
C      0.117239505000     0.524237970000     0.277454250000   
C      0.139864460000     0.981046600000     0.197641625000   
C      0.119206825000     0.993377985000     0.250928350000   
C      0.137912110000     0.511893350000     0.224166585000   
C      0.102552245000     0.944042350000     0.251105100000   
C      0.154566650000     0.561228970000     0.223989850000   
C      0.134494575000     0.573275170000     0.277096550000   
C      0.122624345000     0.931996165000     0.197998375000   
C      0.152886735000     0.591542780000     0.250704850000   
C      0.104232170000     0.913728550000     0.224390060000   
C      0.247360690000     0.583781050000     0.144776075000   
C      0.009754175000     0.921500350000     0.330315050000   
C      0.265332550000     0.603164135000     0.118508025000   
C      0.491786350000     0.902107250000     0.356586900000   
C      0.232075950000     0.604921355000     0.090764695000   
C      0.025042920000     0.900350000000     0.384330200000   
C      0.180202450000     0.587113400000     0.089896925000   
C      0.076916425000     0.918157950000     0.385198000000   
C      0.161515490000     0.569018365000     0.116331295000   
C      0.095603415000     0.936253000000     0.358763650000   
C      0.194801735000     0.567101875000     0.144087400000   
C      0.062313155000     0.938179500000     0.331003750000   
C      0.358303220000     0.939838380000     0.475388300000   
C      0.398266100000     0.564784900000     0.000433205000   
C      0.300252765000     0.950672715000     0.473041750000   
C      0.456306050000     0.553930710000     0.002865195000   
C      0.306196250000     0.537904160000     0.487231165000   
C      0.450397580000     0.966782700000     0.488423230000   
C      0.365090900000     0.526930355000     0.491063300000   
C      0.391492750000     0.977722600000     0.484666975000   
C      0.253802420000     0.638015835000     0.004200340000   
C      0.000820970000     0.867954880000     0.470774680000   
C      0.202059050000     0.676113770000     0.000100015000   
C      0.052594385000     0.829843900000     0.474571900000   
C      0.154169530000     0.812675650000     0.477381675000   
C      0.100482685000     0.693206950000     0.497000700000   
C      0.104648220000     0.846274750000     0.471862150000   
C      0.149967685000     0.659652325000     0.002633630000   
C      0.051504230000     0.778208165000     0.482558000000   
C      0.203191190000     0.727689130000     0.491956300000   
C      0.101435090000     0.744247840000     0.488448770000   
C      0.153255865000     0.761633550000     0.485975500000   
N      0.081911310000     0.956966850000     0.303690300000   
N      0.175207550000     0.548304540000     0.171404600000   
N      0.482894600000     0.505005070000     0.497245220000   
N      0.273649930000     0.999656975000     0.478533350000   
O      0.285961900000     0.659045280000     0.066612085000   
O      0.471157000000     0.846226065000     0.408482850000   
O      0.024426455000     0.895876400000     0.438473800000   
O      0.232692450000     0.609394960000     0.036621125000   
O      0.071326995000     0.877943900000     0.278721570000   
O      0.185791880000     0.627327450000     0.196373375000   
O      0.093921915000     0.535585910000     0.328766200000   
O      0.163196950000     0.969685400000     0.146328715000   
O      0.473428650000     0.916863750000     0.482954650000   
O      0.283290980000     0.587943150000     0.492472915000   
O      0.484642030000     0.594482625000     0.011084080000   
O      0.271949500000     0.910012550000     0.465055700000   
O      0.245531590000     0.588848710000     0.000872495000   
O      0.009075140000     0.917108050000     0.474238275000   
O      0.302740800000     0.655651660000     0.010039805000   
O      0.451866030000     0.850305020000     0.465070935000   
F      0.281552730000     0.580735600000     0.170826880000   
F      0.475566150000     0.924535720000     0.304268050000   
Zn     0.079389220000     0.971882250000     0.991860270000   
Zn     0.177244380000     0.531395510000     0.985462450000   
H      0.133888150000     0.597734565000     0.797213880000   
H      0.123230750000     0.907536800000     0.677881050000   
H      0.165867180000     0.629490510000     0.751345400000   
H      0.091251655000     0.875780880000     0.723749565000   
H      0.305748520000     0.616094150000     0.619778650000   
H      0.451366300000     0.889187250000     0.855312500000   
H      0.153530800000     0.588189745000     0.568903000000   
H      0.103588110000     0.917081625000     0.906191950000   
H      0.120834255000     0.556678555000     0.615222855000   
H      0.136284665000     0.948592800000     0.859872050000   
H      0.377024300000     0.900926900000     0.970501400000   
H      0.379544675000     0.603674890000     0.505388440000   
H      0.006639125000     0.908758880000     0.997065800000   
H      0.249695120000     0.595804450000     0.978639500000   
H      0.020816030000     0.587737150000     0.502623020000   
H      0.235585140000     0.917043100000     0.973262370000   
H      0.242669835000     0.741101830000     0.989608400000   
H      0.012052845000     0.764764850000     0.984929235000   
H      0.147239325000     0.620404500000     0.508950470000   
H      0.107304800000     0.885538350000     0.965537725000   
H      0.193271070000     0.826795150000     0.975084650000   
H      0.061360535000     0.679077400000     0.999233485000   
C      0.005942775000     0.879442215000     0.912073200000   
C      0.251165250000     0.625832380000     0.563026400000   
C      0.084832380000     0.926132200000     0.778071350000   
C      0.172288225000     0.579140490000     0.697024540000   
C      0.097707210000     0.505373370000     0.803660450000   
C      0.159411700000     0.999897950000     0.671434475000   
C      0.117239505000     0.524237970000     0.777454250000   
C      0.139864460000     0.981046600000     0.697641625000   
C      0.119206825000     0.993377985000     0.750928350000   
C      0.137912110000     0.511893350000     0.724166585000   
C      0.102552245000     0.944042350000     0.751105100000   
C      0.154566650000     0.561228970000     0.723989850000   
C      0.134494575000     0.573275170000     0.777096550000   
C      0.122624345000     0.931996165000     0.697998375000   
C      0.152886735000     0.591542780000     0.750704850000   
C      0.104232170000     0.913728550000     0.724390060000   
C      0.247360690000     0.583781050000     0.644776075000   
C      0.009754175000     0.921500350000     0.830315050000   
C      0.265332550000     0.603164135000     0.618508025000   
C      0.491786350000     0.902107250000     0.856586900000   
C      0.232075950000     0.604921355000     0.590764695000   
C      0.025042920000     0.900350000000     0.884330200000   
C      0.180202450000     0.587113400000     0.589896925000   
C      0.076916425000     0.918157950000     0.885198000000   
C      0.161515490000     0.569018365000     0.616331295000   
C      0.095603415000     0.936253000000     0.858763650000   
C      0.194801735000     0.567101875000     0.644087400000   
C      0.062313155000     0.938179500000     0.831003750000   
C      0.358303220000     0.939838380000     0.975388300000   
C      0.398266100000     0.564784900000     0.500433205000   
C      0.300252765000     0.950672715000     0.973041750000   
C      0.456306050000     0.553930710000     0.502865195000   
C      0.306196250000     0.537904160000     0.987231165000   
C      0.450397580000     0.966782700000     0.988423230000   
C      0.365090900000     0.526930355000     0.991063300000   
C      0.391492750000     0.977722600000     0.984666975000   
C      0.253802420000     0.638015835000     0.504200340000   
C      0.000820970000     0.867954880000     0.970774680000   
C      0.202059050000     0.676113770000     0.500100015000   
C      0.052594385000     0.829843900000     0.974571900000   
C      0.154169530000     0.812675650000     0.977381675000   
C      0.100482685000     0.693206950000     0.997000700000   
C      0.104648220000     0.846274750000     0.971862150000   
C      0.149967685000     0.659652325000     0.502633630000   
C      0.051504230000     0.778208165000     0.982558000000   
C      0.203191190000     0.727689130000     0.991956300000   
C      0.101435090000     0.744247840000     0.988448770000   
C      0.153255865000     0.761633550000     0.985975500000   
N      0.081911310000     0.956966850000     0.803690300000   
N      0.175207550000     0.548304540000     0.671404600000   
N      0.482894600000     0.505005070000     0.997245220000   
N      0.273649930000     0.999656975000     0.978533350000   
O      0.285961900000     0.659045280000     0.566612085000   
O      0.471157000000     0.846226065000     0.908482850000   
O      0.024426455000     0.895876400000     0.938473800000   
O      0.232692450000     0.609394960000     0.536621125000   
O      0.071326995000     0.877943900000     0.778721570000   
O      0.185791880000     0.627327450000     0.696373375000   
O      0.093921915000     0.535585910000     0.828766200000   
O      0.163196950000     0.969685400000     0.646328715000   
O      0.473428650000     0.916863750000     0.982954650000   
O      0.283290980000     0.587943150000     0.992472915000   
O      0.484642030000     0.594482625000     0.511084080000   
O      0.271949500000     0.910012550000     0.965055700000   
O      0.245531590000     0.588848710000     0.500872495000   
O      0.009075140000     0.917108050000     0.974238275000   
O      0.302740800000     0.655651660000     0.510039805000   
O      0.451866030000     0.850305020000     0.965070935000   
F      0.281552730000     0.580735600000     0.670826880000   
F      0.475566150000     0.924535720000     0.804268050000   
Zn     0.579389220000     0.471882250000     0.491860270000   
Zn     0.677244380000     0.031395510000     0.485462450000   
H      0.633888150000     0.097734565000     0.297213880000   
H      0.623230750000     0.407536800000     0.177881050000   
H      0.665867180000     0.129490510000     0.251345400000   
H      0.591251655000     0.375780880000     0.223749565000   
H      0.805748520000     0.116094150000     0.119778650000   
H      0.951366300000     0.389187250000     0.355312500000   
H      0.653530800000     0.088189745000     0.068903000000   
H      0.603588110000     0.417081625000     0.406191950000   
H      0.620834255000     0.056678555000     0.115222855000   
H      0.636284665000     0.448592800000     0.359872050000   
H      0.877024300000     0.400926900000     0.470501400000   
H      0.879544675000     0.103674890000     0.005388440000   
H      0.506639125000     0.408758880000     0.497065800000   
H      0.749695120000     0.095804450000     0.478639500000   
H      0.520816030000     0.087737150000     0.002623020000   
H      0.735585140000     0.417043100000     0.473262370000   
H      0.742669835000     0.241101830000     0.489608400000   
H      0.512052845000     0.264764850000     0.484929235000   
H      0.647239325000     0.120404500000     0.008950470000   
H      0.607304800000     0.385538350000     0.465537725000   
H      0.693271070000     0.326795150000     0.475084650000   
H      0.561360535000     0.179077400000     0.499233485000   
C      0.505942775000     0.379442215000     0.412073200000   
C      0.751165250000     0.125832380000     0.063026400000   
C      0.584832380000     0.426132200000     0.278071350000   
C      0.672288225000     0.079140490000     0.197024540000   
C      0.597707210000     0.005373370000     0.303660450000   
C      0.659411700000     0.499897950000     0.171434475000   
C      0.617239505000     0.024237970000     0.277454250000   
C      0.639864460000     0.481046600000     0.197641625000   
C      0.619206825000     0.493377985000     0.250928350000   
C      0.637912110000     0.011893350000     0.224166585000   
C      0.602552245000     0.444042350000     0.251105100000   
C      0.654566650000     0.061228970000     0.223989850000   
C      0.634494575000     0.073275170000     0.277096550000   
C      0.622624345000     0.431996165000     0.197998375000   
C      0.652886735000     0.091542780000     0.250704850000   
C      0.604232170000     0.413728550000     0.224390060000   
C      0.747360690000     0.083781050000     0.144776075000   
C      0.509754175000     0.421500350000     0.330315050000   
C      0.765332550000     0.103164135000     0.118508025000   
C      0.991786350000     0.402107250000     0.356586900000   
C      0.732075950000     0.104921355000     0.090764695000   
C      0.525042920000     0.400350000000     0.384330200000   
C      0.680202450000     0.087113400000     0.089896925000   
C      0.576916425000     0.418157950000     0.385198000000   
C      0.661515490000     0.069018365000     0.116331295000   
C      0.595603415000     0.436253000000     0.358763650000   
C      0.694801735000     0.067101875000     0.144087400000   
C      0.562313155000     0.438179500000     0.331003750000   
C      0.858303220000     0.439838380000     0.475388300000   
C      0.898266100000     0.064784900000     0.000433205000   
C      0.800252765000     0.450672715000     0.473041750000   
C      0.956306050000     0.053930710000     0.002865195000   
C      0.806196250000     0.037904160000     0.487231165000   
C      0.950397580000     0.466782700000     0.488423230000   
C      0.865090900000     0.026930355000     0.491063300000   
C      0.891492750000     0.477722600000     0.484666975000   
C      0.753802420000     0.138015835000     0.004200340000   
C      0.500820970000     0.367954880000     0.470774680000   
C      0.702059050000     0.176113770000     0.000100015000   
C      0.552594385000     0.329843900000     0.474571900000   
C      0.654169530000     0.312675650000     0.477381675000   
C      0.600482685000     0.193206950000     0.497000700000   
C      0.604648220000     0.346274750000     0.471862150000   
C      0.649967685000     0.159652325000     0.002633630000   
C      0.551504230000     0.278208165000     0.482558000000   
C      0.703191190000     0.227689130000     0.491956300000   
C      0.601435090000     0.244247840000     0.488448770000   
C      0.653255865000     0.261633550000     0.485975500000   
N      0.581911310000     0.456966850000     0.303690300000   
N      0.675207550000     0.048304540000     0.171404600000   
N      0.982894600000     0.005005070000     0.497245220000   
N      0.773649930000     0.499656975000     0.478533350000   
O      0.785961900000     0.159045280000     0.066612085000   
O      0.971157000000     0.346226065000     0.408482850000   
O      0.524426455000     0.395876400000     0.438473800000   
O      0.732692450000     0.109394960000     0.036621125000   
O      0.571326995000     0.377943900000     0.278721570000   
O      0.685791880000     0.127327450000     0.196373375000   
O      0.593921915000     0.035585910000     0.328766200000   
O      0.663196950000     0.469685400000     0.146328715000   
O      0.973428650000     0.416863750000     0.482954650000   
O      0.783290980000     0.087943150000     0.492472915000   
O      0.984642030000     0.094482625000     0.011084080000   
O      0.771949500000     0.410012550000     0.465055700000   
O      0.745531590000     0.088848710000     0.000872495000   
O      0.509075140000     0.417108050000     0.474238275000   
O      0.802740800000     0.155651660000     0.010039805000   
O      0.951866030000     0.350305020000     0.465070935000   
F      0.781552730000     0.080735600000     0.170826880000   
F      0.975566150000     0.424535720000     0.304268050000   
Zn     0.579389220000     0.471882250000     0.991860270000   
Zn     0.677244380000     0.031395510000     0.985462450000   