%BLOCK LATTICE_CART
ang    # angstrom units
  12.170140000000    0.000000000000     0.000000000000   
  1.907471916330     12.120634815244    0.000000000000   
 -1.189430473083    -2.472748517594     23.116384814398  
%ENDBLOCK LATTICE_CART

%BLOCK POSITIONS_FRAC
Zn     0.455368650000     0.105150855000     0.426146030000   
Zn     0.435583700000     0.230983200000     0.423914250000   
Zn     0.450583150000     0.230865900000     0.183078690000   
Zn     0.445595100000     0.106730575000     0.168063940000   
H      0.376391650000     0.369607330000     0.398377180000   
H      0.358241550000     0.457636700000     0.411391350000   
H      0.460399270000     0.461564330000     0.471097600000   
H      0.459309665000     0.370759725000     0.467618225000   
H      0.026277425000     0.043369175000     0.370359500000   
H      0.123775065000     0.359468850000     0.373243200000   
H      0.057166815000     0.037651480000     0.474810630000   
H      0.076097785000     0.381061200000     0.488155200000   
H      0.393814100000     0.043958070000     0.351369750000   
H      0.448728980000     0.368815870000     0.324270500000   
H      0.247594580000     0.335446850000     0.143274710000   
H      0.151505530000     0.494928925000     0.197702320000   
H      0.140912935000     0.255968250000     0.410937725000   
H      0.217599065000     0.261408120000     0.436414300000   
H      0.170768065000     0.084210865000     0.427572800000   
H      0.250418485000     0.084467305000     0.413024785000   
H      0.143225790000     0.255613150000     0.164464860000   
H      0.220238475000     0.259382575000     0.189872490000   
H      0.173413900000     0.082098200000     0.177666515000   
H      0.252829670000     0.083554340000     0.163131075000   
C      0.411176980000     0.249760685000     0.359266730000   
C      0.480717100000     0.086126250000     0.242333815000   
C      0.426044650000     0.214787140000     0.334278850000   
C      0.465821475000     0.121240490000     0.267273950000   
C      0.438630550000     0.185220080000     0.313079050000   
C      0.453237350000     0.150886650000     0.288446150000   
C      0.450285015000     0.143943860000     0.119230040000   
C      0.439488025000     0.190461890000     0.481149880000   
C      0.448206750000     0.154556110000     0.089753680000   
C      0.446441770000     0.163512035000     0.064930245000   
C      0.444105625000     0.173112550000     0.035799440000   
C      0.442000250000     0.180993100000     0.010804345000   
C      0.399598570000     0.451506300000     0.401643750000   
C      0.415533930000     0.386163250000     0.395761900000   
C      0.427029350000     0.452489000000     0.455054820000   
C      0.431088350000     0.387298375000     0.450096600000   
C      0.439234465000     0.476764800000     0.426231950000   
C      0.458023520000     0.363673480000     0.420110730000   
C      0.016254305000     0.387267085000     0.419374170000   
C      0.003448425000     0.455245375000     0.418992280000   
C      0.465926150000     0.300857485000     0.418203900000   
C      0.427363150000     0.039652705000     0.430047480000   
C      0.013852715000     0.477350000000     0.390211900000   
C      0.052587630000     0.360631350000     0.393983100000   
C      0.044230820000     0.483300985000     0.440055850000   
C      0.052229820000     0.367515685000     0.446011100000   
C      0.384149700000     0.482154550000     0.374951800000   
C      0.428980150000     0.360528620000     0.364976700000   
C      0.376431500000     0.399352075000     0.175916565000   
C      0.007011830000     0.443014680000     0.197038425000   
C      0.389223350000     0.340609300000     0.171305240000   
C      0.000508250000     0.497654080000     0.189554300000   
C      0.484375775000     0.347473650000     0.182326420000   
C      0.408666050000     0.489831550000     0.172188670000   
C      0.470940650000     0.406967970000     0.184820190000   
C      0.418468650000     0.431994675000     0.176494700000   
C      0.488554625000     0.165783585000     0.417926550000   
C      0.401958100000     0.176232530000     0.431040350000   
C      0.126463160000     0.218100190000     0.414904415000   
C      0.245640950000     0.223036365000     0.431746425000   
C      0.069171755000     0.216656450000     0.412798850000   
C      0.302675850000     0.224979430000     0.434342200000   
C      0.048881275000     0.166528715000     0.415965200000   
C      0.341280500000     0.175002160000     0.430600820000   
C      0.087836400000     0.117732720000     0.418145400000   
C      0.320174425000     0.123944850000     0.425091350000   
C      0.143773700000     0.121504900000     0.422831500000   
C      0.263594570000     0.123973840000     0.419938400000   
C      0.164362790000     0.171154035000     0.420895370000   
C      0.225257750000     0.172916130000     0.423915150000   
C      0.491080435000     0.164313210000     0.169784305000   
C      0.404507725000     0.174637810000     0.182732100000   
C      0.128861500000     0.217296250000     0.167688860000   
C      0.248228760000     0.221262620000     0.184460200000   
C      0.071562700000     0.215890510000     0.165607750000   
C      0.305277700000     0.223133640000     0.187039210000   
C      0.051356565000     0.165316550000     0.167801470000   
C      0.343847275000     0.173319785000     0.182316020000   
C      0.090359040000     0.116262310000     0.168995185000   
C      0.322704225000     0.122436305000     0.175856425000   
C      0.146339050000     0.119816370000     0.173691215000   
C      0.266072900000     0.122729460000     0.170769975000   
C      0.166861385000     0.169821965000     0.172712565000   
C      0.227775035000     0.171488180000     0.175707200000   
S      0.064734640000     0.021923900000     0.187073900000   
S      0.328257200000     0.308713020000     0.163051650000   
I      0.336336075000     0.016214190000     0.146568015000   
I      0.070332410000     0.316171900000     0.187583030000   
I      0.303221315000     0.436019125000     0.199598500000   
I      0.039674580000     0.432775850000     0.240046770000   
I      0.071894310000     0.034150995000     0.410429750000   
I      0.366034985000     0.042467785000     0.426539350000   
I      0.074367790000     0.032906495000     0.159704340000   
I      0.368620275000     0.040649640000     0.175681725000   
N      0.472201150000     0.252417150000     0.416748820000   
N      0.419043100000     0.088137390000     0.432834250000   
N      0.375100285000     0.478701750000     0.469067725000   
N      0.378098130000     0.366984150000     0.453871150000   
N      0.449845880000     0.023157475000     0.178571100000   
N      0.444302150000     0.313299715000     0.173913150000   
N      0.032902295000     0.265292700000     0.405240200000   
N      0.319861500000     0.278309600000     0.441404850000   
N      0.035169250000     0.265176950000     0.159055190000   
N      0.322522250000     0.276178850000     0.195091860000   
O      0.361097200000     0.257637920000     0.366824350000   
O      0.030807315000     0.078190350000     0.234799115000   
O      0.443933800000     0.062589535000     0.227827550000   
O      0.447970700000     0.273238750000     0.373795925000   
O      0.429606020000     0.242141960000     0.475049450000   
O      0.447279950000     0.147047775000     0.461666450000   
O      0.495530070000     0.144651935000     0.133958965000   
O      0.405763030000     0.140784300000     0.131726750000   
O      0.336784630000     0.011293175000     0.456112250000   
O      0.367359100000     0.469322115000     0.495413200000   
O      0.331073525000     0.389468050000     0.442669480000   
O      0.377498650000     0.327836450000     0.470480470000   
O      0.015315950000     0.448315600000     0.367135315000   
O      0.020452855000     0.033146145000     0.390361370000   
O      0.039261520000     0.322752450000     0.377117485000   
O      0.103731450000     0.378513150000     0.391053150000   
O      0.094304385000     0.472001650000     0.436196750000   
O      0.025595545000     0.022454320000     0.463084350000   
O      0.079094050000     0.320719500000     0.444381835000   
O      0.051841500000     0.400071300000     0.472733950000   
O      0.346851900000     0.468214780000     0.358438950000   
O      0.409093100000     0.027461945000     0.369678550000   
O      0.427108250000     0.311057600000     0.358630250000   
O      0.441275565000     0.391826480000     0.343557415000   
O      0.075292470000     0.025604130000     0.155871950000   
O      0.064100860000     0.077214060000     0.204262570000   
O      0.117889105000     0.477731230000     0.199777350000   
O      0.337662250000     0.253667600000     0.145615650000   
O      0.301619150000     0.302840650000     0.190758215000   
O      0.283052850000     0.350676415000     0.143750950000   
O      0.454915050000     0.212251200000     0.423310300000   
O      0.420228950000     0.223709330000     0.434694915000   
O      0.470533050000     0.118446300000     0.415287735000   
O      0.435859500000     0.129904730000     0.426672665000   
O      0.498661050000     0.261788850000     0.382934550000   
O      0.041068655000     0.314104300000     0.417122900000   
O      0.342017100000     0.290718600000     0.466854335000   
O      0.301829450000     0.317989765000     0.425408350000   
O      0.457499400000     0.210495920000     0.176070500000   
O      0.422792750000     0.222056180000     0.187277915000   
O      0.473058750000     0.116962165000     0.166252100000   
O      0.438364625000     0.128522740000     0.177459820000   
O      0.000629010000     0.263202450000     0.136809825000   
O      0.043468630000     0.313323050000     0.171824700000   
O      0.345019850000     0.286841000000     0.220648470000   
O      0.304246350000     0.317119400000     0.179952860000   
Zn     0.455368650000     0.105150855000     0.926146030000   
Zn     0.435583700000     0.230983200000     0.923914250000   
Zn     0.450583150000     0.230865900000     0.683078690000   
Zn     0.445595100000     0.106730575000     0.668063940000   
H      0.376391650000     0.369607330000     0.898377180000   
H      0.358241550000     0.457636700000     0.911391350000   
H      0.460399270000     0.461564330000     0.971097600000   
H      0.459309665000     0.370759725000     0.967618225000   
H      0.026277425000     0.043369175000     0.870359500000   
H      0.123775065000     0.359468850000     0.873243200000   
H      0.057166815000     0.037651480000     0.974810630000   
H      0.076097785000     0.381061200000     0.988155200000   
H      0.393814100000     0.043958070000     0.851369750000   
H      0.448728980000     0.368815870000     0.824270500000   
H      0.247594580000     0.335446850000     0.643274710000   
H      0.151505530000     0.494928925000     0.697702320000   
H      0.140912935000     0.255968250000     0.910937725000   
H      0.217599065000     0.261408120000     0.936414300000   
H      0.170768065000     0.084210865000     0.927572800000   
H      0.250418485000     0.084467305000     0.913024785000   
H      0.143225790000     0.255613150000     0.664464860000   
H      0.220238475000     0.259382575000     0.689872490000   
H      0.173413900000     0.082098200000     0.677666515000   
H      0.252829670000     0.083554340000     0.663131075000   
C      0.411176980000     0.249760685000     0.859266730000   
C      0.480717100000     0.086126250000     0.742333815000   
C      0.426044650000     0.214787140000     0.834278850000   
C      0.465821475000     0.121240490000     0.767273950000   
C      0.438630550000     0.185220080000     0.813079050000   
C      0.453237350000     0.150886650000     0.788446150000   
C      0.450285015000     0.143943860000     0.619230040000   
C      0.439488025000     0.190461890000     0.981149880000   
C      0.448206750000     0.154556110000     0.589753680000   
C      0.446441770000     0.163512035000     0.564930245000   
C      0.444105625000     0.173112550000     0.535799440000   
C      0.442000250000     0.180993100000     0.510804345000   
C      0.399598570000     0.451506300000     0.901643750000   
C      0.415533930000     0.386163250000     0.895761900000   
C      0.427029350000     0.452489000000     0.955054820000   
C      0.431088350000     0.387298375000     0.950096600000   
C      0.439234465000     0.476764800000     0.926231950000   
C      0.458023520000     0.363673480000     0.920110730000   
C      0.016254305000     0.387267085000     0.919374170000   
C      0.003448425000     0.455245375000     0.918992280000   
C      0.465926150000     0.300857485000     0.918203900000   
C      0.427363150000     0.039652705000     0.930047480000   
C      0.013852715000     0.477350000000     0.890211900000   
C      0.052587630000     0.360631350000     0.893983100000   
C      0.044230820000     0.483300985000     0.940055850000   
C      0.052229820000     0.367515685000     0.946011100000   
C      0.384149700000     0.482154550000     0.874951800000   
C      0.428980150000     0.360528620000     0.864976700000   
C      0.376431500000     0.399352075000     0.675916565000   
C      0.007011830000     0.443014680000     0.697038425000   
C      0.389223350000     0.340609300000     0.671305240000   
C      0.000508250000     0.497654080000     0.689554300000   
C      0.484375775000     0.347473650000     0.682326420000   
C      0.408666050000     0.489831550000     0.672188670000   
C      0.470940650000     0.406967970000     0.684820190000   
C      0.418468650000     0.431994675000     0.676494700000   
C      0.488554625000     0.165783585000     0.917926550000   
C      0.401958100000     0.176232530000     0.931040350000   
C      0.126463160000     0.218100190000     0.914904415000   
C      0.245640950000     0.223036365000     0.931746425000   
C      0.069171755000     0.216656450000     0.912798850000   
C      0.302675850000     0.224979430000     0.934342200000   
C      0.048881275000     0.166528715000     0.915965200000   
C      0.341280500000     0.175002160000     0.930600820000   
C      0.087836400000     0.117732720000     0.918145400000   
C      0.320174425000     0.123944850000     0.925091350000   
C      0.143773700000     0.121504900000     0.922831500000   
C      0.263594570000     0.123973840000     0.919938400000   
C      0.164362790000     0.171154035000     0.920895370000   
C      0.225257750000     0.172916130000     0.923915150000   
C      0.491080435000     0.164313210000     0.669784305000   
C      0.404507725000     0.174637810000     0.682732100000   
C      0.128861500000     0.217296250000     0.667688860000   
C      0.248228760000     0.221262620000     0.684460200000   
C      0.071562700000     0.215890510000     0.665607750000   
C      0.305277700000     0.223133640000     0.687039210000   
C      0.051356565000     0.165316550000     0.667801470000   
C      0.343847275000     0.173319785000     0.682316020000   
C      0.090359040000     0.116262310000     0.668995185000   
C      0.322704225000     0.122436305000     0.675856425000   
C      0.146339050000     0.119816370000     0.673691215000   
C      0.266072900000     0.122729460000     0.670769975000   
C      0.166861385000     0.169821965000     0.672712565000   
C      0.227775035000     0.171488180000     0.675707200000   
S      0.064734640000     0.021923900000     0.687073900000   
S      0.328257200000     0.308713020000     0.663051650000   
I      0.336336075000     0.016214190000     0.646568015000   
I      0.070332410000     0.316171900000     0.687583030000   
I      0.303221315000     0.436019125000     0.699598500000   
I      0.039674580000     0.432775850000     0.740046770000   
I      0.071894310000     0.034150995000     0.910429750000   
I      0.366034985000     0.042467785000     0.926539350000   
I      0.074367790000     0.032906495000     0.659704340000   
I      0.368620275000     0.040649640000     0.675681725000   
N      0.472201150000     0.252417150000     0.916748820000   
N      0.419043100000     0.088137390000     0.932834250000   
N      0.375100285000     0.478701750000     0.969067725000   
N      0.378098130000     0.366984150000     0.953871150000   
N      0.449845880000     0.023157475000     0.678571100000   
N      0.444302150000     0.313299715000     0.673913150000   
N      0.032902295000     0.265292700000     0.905240200000   
N      0.319861500000     0.278309600000     0.941404850000   
N      0.035169250000     0.265176950000     0.659055190000   
N      0.322522250000     0.276178850000     0.695091860000   
O      0.361097200000     0.257637920000     0.866824350000   
O      0.030807315000     0.078190350000     0.734799115000   
O      0.443933800000     0.062589535000     0.727827550000   
O      0.447970700000     0.273238750000     0.873795925000   
O      0.429606020000     0.242141960000     0.975049450000   
O      0.447279950000     0.147047775000     0.961666450000   
O      0.495530070000     0.144651935000     0.633958965000   
O      0.405763030000     0.140784300000     0.631726750000   
O      0.336784630000     0.011293175000     0.956112250000   
O      0.367359100000     0.469322115000     0.995413200000   
O      0.331073525000     0.389468050000     0.942669480000   
O      0.377498650000     0.327836450000     0.970480470000   
O      0.015315950000     0.448315600000     0.867135315000   
O      0.020452855000     0.033146145000     0.890361370000   
O      0.039261520000     0.322752450000     0.877117485000   
O      0.103731450000     0.378513150000     0.891053150000   
O      0.094304385000     0.472001650000     0.936196750000   
O      0.025595545000     0.022454320000     0.963084350000   
O      0.079094050000     0.320719500000     0.944381835000   
O      0.051841500000     0.400071300000     0.972733950000   
O      0.346851900000     0.468214780000     0.858438950000   
O      0.409093100000     0.027461945000     0.869678550000   
O      0.427108250000     0.311057600000     0.858630250000   
O      0.441275565000     0.391826480000     0.843557415000   
O      0.075292470000     0.025604130000     0.655871950000   
O      0.064100860000     0.077214060000     0.704262570000   
O      0.117889105000     0.477731230000     0.699777350000   
O      0.337662250000     0.253667600000     0.645615650000   
O      0.301619150000     0.302840650000     0.690758215000   
O      0.283052850000     0.350676415000     0.643750950000   
O      0.454915050000     0.212251200000     0.923310300000   
O      0.420228950000     0.223709330000     0.934694915000   
O      0.470533050000     0.118446300000     0.915287735000   
O      0.435859500000     0.129904730000     0.926672665000   
O      0.498661050000     0.261788850000     0.882934550000   
O      0.041068655000     0.314104300000     0.917122900000   
O      0.342017100000     0.290718600000     0.966854335000   
O      0.301829450000     0.317989765000     0.925408350000   
O      0.457499400000     0.210495920000     0.676070500000   
O      0.422792750000     0.222056180000     0.687277915000   
O      0.473058750000     0.116962165000     0.666252100000   
O      0.438364625000     0.128522740000     0.677459820000   
O      0.000629010000     0.263202450000     0.636809825000   
O      0.043468630000     0.313323050000     0.671824700000   
O      0.345019850000     0.286841000000     0.720648470000   
O      0.304246350000     0.317119400000     0.679952860000   
Zn     0.455368650000     0.605150855000     0.426146030000   
Zn     0.435583700000     0.730983200000     0.423914250000   
Zn     0.450583150000     0.730865900000     0.183078690000   
Zn     0.445595100000     0.606730575000     0.168063940000   
H      0.376391650000     0.869607330000     0.398377180000   
H      0.358241550000     0.957636700000     0.411391350000   
H      0.460399270000     0.961564330000     0.471097600000   
H      0.459309665000     0.870759725000     0.467618225000   
H      0.026277425000     0.543369175000     0.370359500000   
H      0.123775065000     0.859468850000     0.373243200000   
H      0.057166815000     0.537651480000     0.474810630000   
H      0.076097785000     0.881061200000     0.488155200000   
H      0.393814100000     0.543958070000     0.351369750000   
H      0.448728980000     0.868815870000     0.324270500000   
H      0.247594580000     0.835446850000     0.143274710000   
H      0.151505530000     0.994928925000     0.197702320000   
H      0.140912935000     0.755968250000     0.410937725000   
H      0.217599065000     0.761408120000     0.436414300000   
H      0.170768065000     0.584210865000     0.427572800000   
H      0.250418485000     0.584467305000     0.413024785000   
H      0.143225790000     0.755613150000     0.164464860000   
H      0.220238475000     0.759382575000     0.189872490000   
H      0.173413900000     0.582098200000     0.177666515000   
H      0.252829670000     0.583554340000     0.163131075000   
C      0.411176980000     0.749760685000     0.359266730000   
C      0.480717100000     0.586126250000     0.242333815000   
C      0.426044650000     0.714787140000     0.334278850000   
C      0.465821475000     0.621240490000     0.267273950000   
C      0.438630550000     0.685220080000     0.313079050000   
C      0.453237350000     0.650886650000     0.288446150000   
C      0.450285015000     0.643943860000     0.119230040000   
C      0.439488025000     0.690461890000     0.481149880000   
C      0.448206750000     0.654556110000     0.089753680000   
C      0.446441770000     0.663512035000     0.064930245000   
C      0.444105625000     0.673112550000     0.035799440000   
C      0.442000250000     0.680993100000     0.010804345000   
C      0.399598570000     0.951506300000     0.401643750000   
C      0.415533930000     0.886163250000     0.395761900000   
C      0.427029350000     0.952489000000     0.455054820000   
C      0.431088350000     0.887298375000     0.450096600000   
C      0.439234465000     0.976764800000     0.426231950000   
C      0.458023520000     0.863673480000     0.420110730000   
C      0.016254305000     0.887267085000     0.419374170000   
C      0.003448425000     0.955245375000     0.418992280000   
C      0.465926150000     0.800857485000     0.418203900000   
C      0.427363150000     0.539652705000     0.430047480000   
C      0.013852715000     0.977350000000     0.390211900000   
C      0.052587630000     0.860631350000     0.393983100000   
C      0.044230820000     0.983300985000     0.440055850000   
C      0.052229820000     0.867515685000     0.446011100000   
C      0.384149700000     0.982154550000     0.374951800000   
C      0.428980150000     0.860528620000     0.364976700000   
C      0.376431500000     0.899352075000     0.175916565000   
C      0.007011830000     0.943014680000     0.197038425000   
C      0.389223350000     0.840609300000     0.171305240000   
C      0.000508250000     0.997654080000     0.189554300000   
C      0.484375775000     0.847473650000     0.182326420000   
C      0.408666050000     0.989831550000     0.172188670000   
C      0.470940650000     0.906967970000     0.184820190000   
C      0.418468650000     0.931994675000     0.176494700000   
C      0.488554625000     0.665783585000     0.417926550000   
C      0.401958100000     0.676232530000     0.431040350000   
C      0.126463160000     0.718100190000     0.414904415000   
C      0.245640950000     0.723036365000     0.431746425000   
C      0.069171755000     0.716656450000     0.412798850000   
C      0.302675850000     0.724979430000     0.434342200000   
C      0.048881275000     0.666528715000     0.415965200000   
C      0.341280500000     0.675002160000     0.430600820000   
C      0.087836400000     0.617732720000     0.418145400000   
C      0.320174425000     0.623944850000     0.425091350000   
C      0.143773700000     0.621504900000     0.422831500000   
C      0.263594570000     0.623973840000     0.419938400000   
C      0.164362790000     0.671154035000     0.420895370000   
C      0.225257750000     0.672916130000     0.423915150000   
C      0.491080435000     0.664313210000     0.169784305000   
C      0.404507725000     0.674637810000     0.182732100000   
C      0.128861500000     0.717296250000     0.167688860000   
C      0.248228760000     0.721262620000     0.184460200000   
C      0.071562700000     0.715890510000     0.165607750000   
C      0.305277700000     0.723133640000     0.187039210000   
C      0.051356565000     0.665316550000     0.167801470000   
C      0.343847275000     0.673319785000     0.182316020000   
C      0.090359040000     0.616262310000     0.168995185000   
C      0.322704225000     0.622436305000     0.175856425000   
C      0.146339050000     0.619816370000     0.173691215000   
C      0.266072900000     0.622729460000     0.170769975000   
C      0.166861385000     0.669821965000     0.172712565000   
C      0.227775035000     0.671488180000     0.175707200000   
S      0.064734640000     0.521923900000     0.187073900000   
S      0.328257200000     0.808713020000     0.163051650000   
I      0.336336075000     0.516214190000     0.146568015000   
I      0.070332410000     0.816171900000     0.187583030000   
I      0.303221315000     0.936019125000     0.199598500000   
I      0.039674580000     0.932775850000     0.240046770000   
I      0.071894310000     0.534150995000     0.410429750000   
I      0.366034985000     0.542467785000     0.426539350000   
I      0.074367790000     0.532906495000     0.159704340000   
I      0.368620275000     0.540649640000     0.175681725000   
N      0.472201150000     0.752417150000     0.416748820000   
N      0.419043100000     0.588137390000     0.432834250000   
N      0.375100285000     0.978701750000     0.469067725000   
N      0.378098130000     0.866984150000     0.453871150000   
N      0.449845880000     0.523157475000     0.178571100000   
N      0.444302150000     0.813299715000     0.173913150000   
N      0.032902295000     0.765292700000     0.405240200000   
N      0.319861500000     0.778309600000     0.441404850000   
N      0.035169250000     0.765176950000     0.159055190000   
N      0.322522250000     0.776178850000     0.195091860000   
O      0.361097200000     0.757637920000     0.366824350000   
O      0.030807315000     0.578190350000     0.234799115000   
O      0.443933800000     0.562589535000     0.227827550000   
O      0.447970700000     0.773238750000     0.373795925000   
O      0.429606020000     0.742141960000     0.475049450000   
O      0.447279950000     0.647047775000     0.461666450000   
O      0.495530070000     0.644651935000     0.133958965000   
O      0.405763030000     0.640784300000     0.131726750000   
O      0.336784630000     0.511293175000     0.456112250000   
O      0.367359100000     0.969322115000     0.495413200000   
O      0.331073525000     0.889468050000     0.442669480000   
O      0.377498650000     0.827836450000     0.470480470000   
O      0.015315950000     0.948315600000     0.367135315000   
O      0.020452855000     0.533146145000     0.390361370000   
O      0.039261520000     0.822752450000     0.377117485000   
O      0.103731450000     0.878513150000     0.391053150000   
O      0.094304385000     0.972001650000     0.436196750000   
O      0.025595545000     0.522454320000     0.463084350000   
O      0.079094050000     0.820719500000     0.444381835000   
O      0.051841500000     0.900071300000     0.472733950000   
O      0.346851900000     0.968214780000     0.358438950000   
O      0.409093100000     0.527461945000     0.369678550000   
O      0.427108250000     0.811057600000     0.358630250000   
O      0.441275565000     0.891826480000     0.343557415000   
O      0.075292470000     0.525604130000     0.155871950000   
O      0.064100860000     0.577214060000     0.204262570000   
O      0.117889105000     0.977731230000     0.199777350000   
O      0.337662250000     0.753667600000     0.145615650000   
O      0.301619150000     0.802840650000     0.190758215000   
O      0.283052850000     0.850676415000     0.143750950000   
O      0.454915050000     0.712251200000     0.423310300000   
O      0.420228950000     0.723709330000     0.434694915000   
O      0.470533050000     0.618446300000     0.415287735000   
O      0.435859500000     0.629904730000     0.426672665000   
O      0.498661050000     0.761788850000     0.382934550000   
O      0.041068655000     0.814104300000     0.417122900000   
O      0.342017100000     0.790718600000     0.466854335000   
O      0.301829450000     0.817989765000     0.425408350000   
O      0.457499400000     0.710495920000     0.176070500000   
O      0.422792750000     0.722056180000     0.187277915000   
O      0.473058750000     0.616962165000     0.166252100000   
O      0.438364625000     0.628522740000     0.177459820000   
O      0.000629010000     0.763202450000     0.136809825000   
O      0.043468630000     0.813323050000     0.171824700000   
O      0.345019850000     0.786841000000     0.220648470000   
O      0.304246350000     0.817119400000     0.179952860000   
Zn     0.455368650000     0.605150855000     0.926146030000   
Zn     0.435583700000     0.730983200000     0.923914250000   
Zn     0.450583150000     0.730865900000     0.683078690000   
Zn     0.445595100000     0.606730575000     0.668063940000   
H      0.376391650000     0.869607330000     0.898377180000   
H      0.358241550000     0.957636700000     0.911391350000   
H      0.460399270000     0.961564330000     0.971097600000   
H      0.459309665000     0.870759725000     0.967618225000   
H      0.026277425000     0.543369175000     0.870359500000   
H      0.123775065000     0.859468850000     0.873243200000   