%BLOCK LATTICE_CART
ang    # angstrom units
  9.644590000000     0.000000000000     0.000000000000   
 -0.550459912650     13.219214142053    0.000000000000   
 -0.722626985434    -1.303040106727     18.134370381973  
%ENDBLOCK LATTICE_CART

%BLOCK POSITIONS_FRAC
Cu     0.151208670000     0.481943700000     0.437874850000   
Cu     0.292345315000     0.482355775000     0.441655450000   
H      0.350226370000     0.434831850000     0.407381835000   
H      0.092947005000     0.025635660000     0.473374575000   
H      0.352095750000     0.036884545000     0.001509905000   
H      0.092504920000     0.431278465000     0.375871650000   
H      0.441969000000     0.336638420000     0.354932250000   
H      0.024147510000     0.355228650000     0.376398800000   
H      0.467008200000     0.378780700000     0.298881500000   
H      0.048013270000     0.405633250000     0.318465850000   
H      0.092574775000     0.319116535000     0.323264180000   
H      0.064243255000     0.328965800000     0.276551500000   
H      0.010039090000     0.291310070000     0.304470150000   
H      0.486790000000     0.128552975000     0.029711785000   
H      0.420145275000     0.113077400000     0.495049600000   
H      0.078255475000     0.122372925000     0.482244820000   
H      0.010976610000     0.109072925000     0.446681770000   
H      0.460069000000     0.192444150000     0.462829920000   
H      0.049998225000     0.200258790000     0.451727180000   
H      0.026548030000     0.206108270000     0.499199865000   
H      0.090686725000     0.141554175000     0.465354500000   
H      0.347448600000     0.323057830000     0.414240030000   
H      0.173219900000     0.094764420000     0.361906915000   
H      0.169684185000     0.157309680000     0.345237450000   
H      0.228226675000     0.112249195000     0.325815915000   
H      0.291606300000     0.175117330000     0.365476350000   
H      0.297445200000     0.116049180000     0.385859370000   
H      0.270362885000     0.308034420000     0.035586120000   
H      0.266625300000     0.369795600000     0.017733755000   
H      0.211610550000     0.353722800000     0.054088830000   
H      0.141514660000     0.347268150000     0.494714750000   
H      0.149504425000     0.288442225000     0.015398145000   
H      0.373420850000     0.184486510000     0.452147950000   
H      0.422683475000     0.244858010000     0.453695800000   
H      0.447467000000     0.149337500000     0.403263100000   
H      0.496210700000     0.209117415000     0.403727600000   
H      0.035004435000     0.201705550000     0.469233650000   
H      0.056345760000     0.146090600000     0.441006570000   
H      0.483059975000     0.143830950000     0.470392350000   
H      0.475575200000     0.249443620000     0.460269000000   
H      0.015243935000     0.204207525000     0.430115225000   
H      0.048801305000     0.320494325000     0.437609200000   
H      0.086818730000     0.275924500000     0.405367900000   
H      0.468208430000     0.251968115000     0.376604200000   
H      0.492245500000     0.318192125000     0.374288320000   
H      0.431643400000     0.299127700000     0.407827975000   
H      0.334120125000     0.380687000000     0.120926400000   
H      0.258022750000     0.378667650000     0.147437020000   
H      0.408367125000     0.362591500000     0.175132470000   
H      0.333203820000     0.362140600000     0.203344000000   
H      0.279436950000     0.289145150000     0.163528100000   
H      0.363416970000     0.274792050000     0.182752310000   
H      0.354537450000     0.289410235000     0.135131285000   
H      0.022790915000     0.433162870000     0.083594210000   
H      0.004810265000     0.446992900000     0.130712120000   
H      0.128553910000     0.388052525000     0.100495585000   
H      0.113627105000     0.401339530000     0.148795935000   
H      0.499452920000     0.352889750000     0.140939235000   
H      0.070425965000     0.314523300000     0.127140050000   
H      0.014407100000     0.339329000000     0.092469030000   
H      0.048581460000     0.077810765000     0.096734875000   
H      0.025276315000     0.122866450000     0.133842735000   
H      0.425347800000     0.066186430000     0.075356545000   
H      0.399987220000     0.108787060000     0.112831985000   
H      0.474120950000     0.178923250000     0.088371940000   
H      0.406231000000     0.153662980000     0.056036505000   
H      0.494591920000     0.135696230000     0.049840430000   
H      0.490803750000     0.039323745000     0.250972700000   
H      0.423143325000     0.040067075000     0.215058210000   
H      0.463107300000     0.128287970000     0.273050900000   
H      0.391579050000     0.125336230000     0.239380835000   
H      0.338308575000     0.050739350000     0.268535850000   
H      0.352567200000     0.104813400000     0.301434425000   
H      0.410662980000     0.053334235000     0.302090600000   
H      0.401622200000     0.491058450000     0.271238400000   
H      0.343197675000     0.034565210000     0.253442465000   
H      0.448994250000     0.475985170000     0.206562860000   
H      0.396514800000     0.026468100000     0.192308900000   
H      0.457163850000     0.086354970000     0.240624635000   
H      0.016682210000     0.058215975000     0.208915325000   
H      0.010815380000     0.035724580000     0.254402250000   
C      0.489783675000     0.440190650000     0.397818000000   
C      0.453358750000     0.024164615000     0.480367050000   
C      0.063136635000     0.448255200000     0.397745670000   
C      0.380530050000     0.016429725000     0.480868950000   
C      0.063578725000     0.001933990000     0.452453500000   
C      0.379853785000     0.459246280000     0.427929100000   
C      0.490328730000     0.497017050000     0.453401400000   
C      0.453157100000     0.465181650000     0.426127375000   
C      0.483081200000     0.367515265000     0.356935235000   
C      0.010786890000     0.372501375000     0.318426670000   
C      0.046621860000     0.324897500000     0.304913650000   
C      0.475549130000     0.106984375000     0.002685965000   
C      0.023235085000     0.128694175000     0.474322530000   
C      0.014238475000     0.185401740000     0.471954350000   
C      0.248948040000     0.377338700000     0.445619880000   
C      0.189750330000     0.086747565000     0.434793500000   
C      0.304480165000     0.248469980000     0.419578900000   
C      0.134349720000     0.216128530000     0.460103275000   
C      0.306070120000     0.300633800000     0.425437480000   
C      0.132367165000     0.163805840000     0.454270350000   
C      0.207791060000     0.294725200000     0.464970700000   
C      0.231827410000     0.169272960000     0.415475280000   
C      0.195433365000     0.243759840000     0.452027170000   
C      0.244187770000     0.220280335000     0.428372550000   
C      0.183843730000     0.140576915000     0.434290080000   
C      0.255019800000     0.323580200000     0.445866525000   
C      0.261827800000     0.146588100000     0.379930350000   
C      0.204563020000     0.126449400000     0.351675100000   
C      0.178075250000     0.317309250000     0.000631570000   
C      0.235344635000     0.338533650000     0.028517785000   
C      0.403520675000     0.211002765000     0.435592150000   
C      0.465980530000     0.183680715000     0.420842850000   
C      0.013038695000     0.167853815000     0.452331150000   
C      0.024541685000     0.241321415000     0.446410120000   
C      0.039565110000     0.283893885000     0.420874475000   
C      0.478984250000     0.288476400000     0.393231930000   
C      0.039882690000     0.347511550000     0.120286740000   
C      0.007470370000     0.088198245000     0.116221285000   
C      0.442276330000     0.099966945000     0.093834860000   
C      0.455425200000     0.144875950000     0.070580480000   
C      0.462007100000     0.064091085000     0.232596200000   
C      0.424297500000     0.102382125000     0.257034800000   
C      0.378636000000     0.076000750000     0.283878900000   
C      0.372220700000     0.000006080000     0.245833600000   
C      0.424187780000     0.011331795000     0.216243000000   
C      0.480640800000     0.050375580000     0.231095835000   
C      0.236373035000     0.484385050000     0.113914630000   
C      0.198736050000     0.483982535000     0.266318085000   
C      0.102317460000     0.008949995000     0.145144150000   
C      0.049840455000     0.038922310000     0.159656465000   
C      0.055479975000     0.058334590000     0.196447385000   
C      0.113510965000     0.047842085000     0.218718600000   
C      0.162868050000     0.013833940000     0.205175800000   
C      0.162910340000     0.001605750000     0.167049080000   
C      0.222734100000     0.480837400000     0.152229415000   
C      0.275508285000     0.463277430000     0.174881535000   
C      0.272908300000     0.471818100000     0.212821140000   
C      0.213137000000     0.492395850000     0.228079065000   
C      0.315026150000     0.388691500000     0.149060265000   
C      0.351406275000     0.354407815000     0.175051360000   
C      0.336092770000     0.298473625000     0.163263470000   
C      0.047820225000     0.441289550000     0.111441050000   
C      0.088059395000     0.394794150000     0.120895670000   
N      0.345061500000     0.484233000000     0.455265015000   
N      0.098515810000     0.477644650000     0.425036965000   
Cl     0.130755035000     0.086955310000     0.259563325000   
O      0.451889635000     0.412868400000     0.369093030000   
O      0.488932250000     0.055584670000     0.007464290000   
O      0.187621965000     0.395004000000     0.444221350000   
O      0.251068650000     0.069063530000     0.436377600000   
O      0.304829100000     0.405618815000     0.446206570000   
O      0.133861540000     0.058448665000     0.434392350000   
O      0.362281235000     0.226017400000     0.405677100000   
O      0.077529795000     0.239783435000     0.474326750000   
O      0.332418400000     0.440341350000     0.160027785000   
O      0.249106720000     0.480824680000     0.289426030000   
O      0.136149035000     0.477629250000     0.276248250000   
O      0.092814190000     0.484880900000     0.110185860000   
O      0.491464950000     0.047776935000     0.138215990000   
O      0.006319380000     0.090650560000     0.209796190000   
O      0.327817025000     0.457129715000     0.234670310000   
O      0.241249485000     0.443367420000     0.093911080000   
O      0.245067360000     0.028216960000     0.101172330000   
Cu     0.151208670000     0.481943700000     0.937874850000   
Cu     0.292345315000     0.482355775000     0.941655450000   
H      0.350226370000     0.434831850000     0.907381835000   
H      0.092947005000     0.025635660000     0.973374575000   
H      0.352095750000     0.036884545000     0.501509905000   
H      0.092504920000     0.431278465000     0.875871650000   
H      0.441969000000     0.336638420000     0.854932250000   
H      0.024147510000     0.355228650000     0.876398800000   
H      0.467008200000     0.378780700000     0.798881500000   
H      0.048013270000     0.405633250000     0.818465850000   
H      0.092574775000     0.319116535000     0.823264180000   
H      0.064243255000     0.328965800000     0.776551500000   
H      0.010039090000     0.291310070000     0.804470150000   
H      0.486790000000     0.128552975000     0.529711785000   
H      0.420145275000     0.113077400000     0.995049600000   
H      0.078255475000     0.122372925000     0.982244820000   
H      0.010976610000     0.109072925000     0.946681770000   
H      0.460069000000     0.192444150000     0.962829920000   
H      0.049998225000     0.200258790000     0.951727180000   
H      0.026548030000     0.206108270000     0.999199865000   
H      0.090686725000     0.141554175000     0.965354500000   
H      0.347448600000     0.323057830000     0.914240030000   
H      0.173219900000     0.094764420000     0.861906915000   
H      0.169684185000     0.157309680000     0.845237450000   
H      0.228226675000     0.112249195000     0.825815915000   
H      0.291606300000     0.175117330000     0.865476350000   
H      0.297445200000     0.116049180000     0.885859370000   
H      0.270362885000     0.308034420000     0.535586120000   
H      0.266625300000     0.369795600000     0.517733755000   
H      0.211610550000     0.353722800000     0.554088830000   
H      0.141514660000     0.347268150000     0.994714750000   
H      0.149504425000     0.288442225000     0.515398145000   
H      0.373420850000     0.184486510000     0.952147950000   
H      0.422683475000     0.244858010000     0.953695800000   
H      0.447467000000     0.149337500000     0.903263100000   
H      0.496210700000     0.209117415000     0.903727600000   
H      0.035004435000     0.201705550000     0.969233650000   
H      0.056345760000     0.146090600000     0.941006570000   
H      0.483059975000     0.143830950000     0.970392350000   
H      0.475575200000     0.249443620000     0.960269000000   
H      0.015243935000     0.204207525000     0.930115225000   
H      0.048801305000     0.320494325000     0.937609200000   
H      0.086818730000     0.275924500000     0.905367900000   
H      0.468208430000     0.251968115000     0.876604200000   
H      0.492245500000     0.318192125000     0.874288320000   
H      0.431643400000     0.299127700000     0.907827975000   
H      0.334120125000     0.380687000000     0.620926400000   
H      0.258022750000     0.378667650000     0.647437020000   
H      0.408367125000     0.362591500000     0.675132470000   
H      0.333203820000     0.362140600000     0.703344000000   
H      0.279436950000     0.289145150000     0.663528100000   
H      0.363416970000     0.274792050000     0.682752310000   
H      0.354537450000     0.289410235000     0.635131285000   
H      0.022790915000     0.433162870000     0.583594210000   
H      0.004810265000     0.446992900000     0.630712120000   
H      0.128553910000     0.388052525000     0.600495585000   
H      0.113627105000     0.401339530000     0.648795935000   
H      0.499452920000     0.352889750000     0.640939235000   
H      0.070425965000     0.314523300000     0.627140050000   
H      0.014407100000     0.339329000000     0.592469030000   
H      0.048581460000     0.077810765000     0.596734875000   
H      0.025276315000     0.122866450000     0.633842735000   
H      0.425347800000     0.066186430000     0.575356545000   
H      0.399987220000     0.108787060000     0.612831985000   
H      0.474120950000     0.178923250000     0.588371940000   
H      0.406231000000     0.153662980000     0.556036505000   
H      0.494591920000     0.135696230000     0.549840430000   
H      0.490803750000     0.039323745000     0.750972700000   
H      0.423143325000     0.040067075000     0.715058210000   
H      0.463107300000     0.128287970000     0.773050900000   
H      0.391579050000     0.125336230000     0.739380835000   
H      0.338308575000     0.050739350000     0.768535850000   
H      0.352567200000     0.104813400000     0.801434425000   
H      0.410662980000     0.053334235000     0.802090600000   
H      0.401622200000     0.491058450000     0.771238400000   
H      0.343197675000     0.034565210000     0.753442465000   
H      0.448994250000     0.475985170000     0.706562860000   
H      0.396514800000     0.026468100000     0.692308900000   
H      0.457163850000     0.086354970000     0.740624635000   
H      0.016682210000     0.058215975000     0.708915325000   
H      0.010815380000     0.035724580000     0.754402250000   
C      0.489783675000     0.440190650000     0.897818000000   
C      0.453358750000     0.024164615000     0.980367050000   
C      0.063136635000     0.448255200000     0.897745670000   
C      0.380530050000     0.016429725000     0.980868950000   
C      0.063578725000     0.001933990000     0.952453500000   
C      0.379853785000     0.459246280000     0.927929100000   
C      0.490328730000     0.497017050000     0.953401400000   
C      0.453157100000     0.465181650000     0.926127375000   
C      0.483081200000     0.367515265000     0.856935235000   
C      0.010786890000     0.372501375000     0.818426670000   
C      0.046621860000     0.324897500000     0.804913650000   
C      0.475549130000     0.106984375000     0.502685965000   
C      0.023235085000     0.128694175000     0.974322530000   
C      0.014238475000     0.185401740000     0.971954350000   
C      0.248948040000     0.377338700000     0.945619880000   
C      0.189750330000     0.086747565000     0.934793500000   
C      0.304480165000     0.248469980000     0.919578900000   
C      0.134349720000     0.216128530000     0.960103275000   
C      0.306070120000     0.300633800000     0.925437480000   
C      0.132367165000     0.163805840000     0.954270350000   
C      0.207791060000     0.294725200000     0.964970700000   
C      0.231827410000     0.169272960000     0.915475280000   
C      0.195433365000     0.243759840000     0.952027170000   
C      0.244187770000     0.220280335000     0.928372550000   
C      0.183843730000     0.140576915000     0.934290080000   
C      0.255019800000     0.323580200000     0.945866525000   
C      0.261827800000     0.146588100000     0.879930350000   
C      0.204563020000     0.126449400000     0.851675100000   
C      0.178075250000     0.317309250000     0.500631570000   
C      0.235344635000     0.338533650000     0.528517785000   
C      0.403520675000     0.211002765000     0.935592150000   
C      0.465980530000     0.183680715000     0.920842850000   
C      0.013038695000     0.167853815000     0.952331150000   
C      0.024541685000     0.241321415000     0.946410120000   
C      0.039565110000     0.283893885000     0.920874475000   
C      0.478984250000     0.288476400000     0.893231930000   
C      0.039882690000     0.347511550000     0.620286740000   
C      0.007470370000     0.088198245000     0.616221285000   
C      0.442276330000     0.099966945000     0.593834860000   
C      0.455425200000     0.144875950000     0.570580480000   
C      0.462007100000     0.064091085000     0.732596200000   
C      0.424297500000     0.102382125000     0.757034800000   
C      0.378636000000     0.076000750000     0.783878900000   
C      0.372220700000     0.000006080000     0.745833600000   
C      0.424187780000     0.011331795000     0.716243000000   
C      0.480640800000     0.050375580000     0.731095835000   
C      0.236373035000     0.484385050000     0.613914630000   
C      0.198736050000     0.483982535000     0.766318085000   
C      0.102317460000     0.008949995000     0.645144150000   
C      0.049840455000     0.038922310000     0.659656465000   
C      0.055479975000     0.058334590000     0.696447385000   
C      0.113510965000     0.047842085000     0.718718600000   
C      0.162868050000     0.013833940000     0.705175800000   
C      0.162910340000     0.001605750000     0.667049080000   
C      0.222734100000     0.480837400000     0.652229415000   
C      0.275508285000     0.463277430000     0.674881535000   
C      0.272908300000     0.471818100000     0.712821140000   
C      0.213137000000     0.492395850000     0.728079065000   
C      0.315026150000     0.388691500000     0.649060265000   
C      0.351406275000     0.354407815000     0.675051360000   
C      0.336092770000     0.298473625000     0.663263470000   
C      0.047820225000     0.441289550000     0.611441050000   
C      0.088059395000     0.394794150000     0.620895670000   
N      0.345061500000     0.484233000000     0.955265015000   
N      0.098515810000     0.477644650000     0.925036965000   
Cl     0.130755035000     0.086955310000     0.759563325000   
O      0.451889635000     0.412868400000     0.869093030000   
O      0.488932250000     0.055584670000     0.507464290000   
O      0.187621965000     0.395004000000     0.944221350000   
O      0.251068650000     0.069063530000     0.936377600000   
O      0.304829100000     0.405618815000     0.946206570000   
O      0.133861540000     0.058448665000     0.934392350000   
O      0.362281235000     0.226017400000     0.905677100000   
O      0.077529795000     0.239783435000     0.974326750000   
O      0.332418400000     0.440341350000     0.660027785000   
O      0.249106720000     0.480824680000     0.789426030000   
O      0.136149035000     0.477629250000     0.776248250000   
O      0.092814190000     0.484880900000     0.610185860000   
O      0.491464950000     0.047776935000     0.638215990000   
O      0.006319380000     0.090650560000     0.709796190000   
O      0.327817025000     0.457129715000     0.734670310000   
O      0.241249485000     0.443367420000     0.593911080000   
O      0.245067360000     0.028216960000     0.601172330000   
Cu     0.151208670000     0.981943700000     0.437874850000   
Cu     0.292345315000     0.982355775000     0.441655450000   
H      0.350226370000     0.934831850000     0.407381835000   
H      0.092947005000     0.525635660000     0.473374575000   
H      0.352095750000     0.536884545000     0.001509905000   
H      0.092504920000     0.931278465000     0.375871650000   
H      0.441969000000     0.836638420000     0.354932250000   
H      0.024147510000     0.855228650000     0.376398800000   
H      0.467008200000     0.878780700000     0.298881500000   
H      0.048013270000     0.905633250000     0.318465850000   
H      0.092574775000     0.819116535000     0.323264180000   
H      0.064243255000     0.828965800000     0.276551500000   
H      0.010039090000     0.791310070000     0.304470150000   
H      0.486790000000     0.628552975000     0.029711785000   
H      0.420145275000     0.613077400000     0.495049600000   
H      0.078255475000     0.622372925000     0.482244820000   
H      0.010976610000     0.609072925000     0.446681770000   
H      0.460069000000     0.692444150000     0.462829920000   
H      0.049998225000     0.700258790000     0.451727180000   
H      0.026548030000     0.706108270000     0.499199865000   
H      0.090686725000     0.641554175000     0.465354500000   
H      0.347448600000     0.823057830000     0.414240030000   
H      0.173219900000     0.594764420000     0.361906915000   
H      0.169684185000     0.657309680000     0.345237450000   
H      0.228226675000     0.612249195000     0.325815915000   
H      0.291606300000     0.675117330000     0.365476350000   
H      0.297445200000     0.616049180000     0.385859370000   
H      0.270362885000     0.808034420000     0.035586120000   
H      0.266625300000     0.869795600000     0.017733755000   
H      0.211610550000     0.853722800000     0.054088830000   
H      0.141514660000     0.847268150000     0.494714750000   
H      0.149504425000     0.788442225000     0.015398145000   
H      0.373420850000     0.684486510000     0.452147950000   
H      0.422683475000     0.744858010000     0.453695800000   
H      0.447467000000     0.649337500000     0.403263100000   
H      0.496210700000     0.709117415000     0.403727600000   
H      0.035004435000     0.701705550000     0.469233650000   
H      0.056345760000     0.646090600000     0.441006570000   
H      0.483059975000     0.643830950000     0.470392350000   
H      0.475575200000     0.749443620000     0.460269000000   
H      0.015243935000     0.704207525000     0.430115225000   
H      0.048801305000     0.820494325000     0.437609200000   
H      0.086818730000     0.775924500000     0.405367900000   
H      0.468208430000     0.751968115000     0.376604200000   
H      0.492245500000     0.818192125000     0.374288320000   
H      0.431643400000     0.799127700000     0.407827975000   
H      0.334120125000     0.880687000000     0.120926400000   
H      0.258022750000     0.878667650000     0.147437020000   
H      0.408367125000     0.862591500000     0.175132470000   
H      0.333203820000     0.862140600000     0.203344000000   
H      0.279436950000     0.789145150000     0.163528100000   
H      0.363416970000     0.774792050000     0.182752310000   
H      0.354537450000     0.789410235000     0.135131285000   
H      0.022790915000     0.933162870000     0.083594210000   
H      0.004810265000     0.946992900000     0.130712120000   
H      0.128553910000     0.888052525000     0.100495585000   
H      0.113627105000     0.901339530000     0.148795935000   
H      0.499452920000     0.852889750000     0.140939235000   
H      0.070425965000     0.814523300000     0.127140050000   
H      0.014407100000     0.839329000000     0.092469030000   
H      0.048581460000     0.577810765000     0.096734875000   
H      0.025276315000     0.622866450000     0.133842735000   
H      0.425347800000     0.566186430000     0.075356545000   
H      0.399987220000     0.608787060000     0.112831985000   
H      0.474120950000     0.678923250000     0.088371940000   
H      0.406231000000     0.653662980000     0.056036505000   
H      0.494591920000     0.635696230000     0.049840430000   
H      0.490803750000     0.539323745000     0.250972700000   
H      0.423143325000     0.540067075000     0.215058210000   
H      0.463107300000     0.628287970000     0.273050900000   
H      0.391579050000     0.625336230000     0.239380835000   
H      0.338308575000     0.550739350000     0.268535850000   
H      0.352567200000     0.604813400000     0.301434425000   
H      0.410662980000     0.553334235000     0.302090600000   
H      0.401622200000     0.991058450000     0.271238400000   
H      0.343197675000     0.534565210000     0.253442465000   
H      0.448994250000     0.975985170000     0.206562860000   
H      0.396514800000     0.526468100000     0.192308900000   
H      0.457163850000     0.586354970000     0.240624635000   
H      0.016682210000     0.558215975000     0.208915325000   
H      0.010815380000     0.535724580000     0.254402250000   
C      0.489783675000     0.940190650000     0.397818000000   
C      0.453358750000     0.524164615000     0.480367050000   
C      0.063136635000     0.948255200000     0.397745670000   
C      0.380530050000     0.516429725000     0.480868950000   
C      0.063578725000     0.501933990000     0.452453500000   
C      0.379853785000     0.959246280000     0.427929100000   
C      0.490328730000     0.997017050000     0.453401400000   
C      0.453157100000     0.965181650000     0.426127375000   
C      0.483081200000     0.867515265000     0.356935235000   
C      0.010786890000     0.872501375000     0.318426670000   
C      0.046621860000     0.824897500000     0.304913650000   
C      0.475549130000     0.606984375000     0.002685965000   
C      0.023235085000     0.628694175000     0.474322530000   
C      0.014238475000     0.685401740000     0.471954350000   
C      0.248948040000     0.877338700000     0.445619880000   
C      0.189750330000     0.586747565000     0.434793500000   
C      0.304480165000     0.748469980000     0.419578900000   
C      0.134349720000     0.716128530000     0.460103275000   
C      0.306070120000     0.800633800000     0.425437480000   
C      0.132367165000     0.663805840000     0.454270350000   
C      0.207791060000     0.794725200000     0.464970700000   
C      0.231827410000     0.669272960000     0.415475280000   
C      0.195433365000     0.743759840000     0.452027170000   
C      0.244187770000     0.720280335000     0.428372550000   
C      0.183843730000     0.640576915000     0.434290080000   
C      0.255019800000     0.823580200000     0.445866525000   
C      0.261827800000     0.646588100000     0.379930350000   
C      0.204563020000     0.626449400000     0.351675100000   
C      0.178075250000     0.817309250000     0.000631570000   
C      0.235344635000     0.838533650000     0.028517785000   
C      0.403520675000     0.711002765000     0.435592150000   
C      0.465980530000     0.683680715000     0.420842850000   
C      0.013038695000     0.667853815000     0.452331150000   
C      0.024541685000     0.741321415000     0.446410120000   
C      0.039565110000     0.783893885000     0.420874475000   
C      0.478984250000     0.788476400000     0.393231930000   
C      0.039882690000     0.847511550000     0.120286740000   
C      0.007470370000     0.588198245000     0.116221285000   
C      0.442276330000     0.599966945000     0.093834860000   
C      0.455425200000     0.644875950000     0.070580480000   
C      0.462007100000     0.564091085000     0.232596200000   
C      0.424297500000     0.602382125000     0.257034800000   
C      0.378636000000     0.576000750000     0.283878900000   
C      0.372220700000     0.500006080000     0.245833600000   
C      0.424187780000     0.511331795000     0.216243000000   
C      0.480640800000     0.550375580000     0.231095835000   
C      0.236373035000     0.984385050000     0.113914630000   
C      0.198736050000     0.983982535000     0.266318085000   
C      0.102317460000     0.508949995000     0.145144150000   
C      0.049840455000     0.538922310000     0.159656465000   
C      0.055479975000     0.558334590000     0.196447385000   
C      0.113510965000     0.547842085000     0.218718600000   
C      0.162868050000     0.513833940000     0.205175800000   
C      0.162910340000     0.501605750000     0.167049080000   
C      0.222734100000     0.980837400000     0.152229415000   
C      0.275508285000     0.963277430000     0.174881535000   
C      0.272908300000     0.971818100000     0.212821140000   
C      0.213137000000     0.992395850000     0.228079065000   
C      0.315026150000     0.888691500000     0.149060265000   
C      0.351406275000     0.854407815000     0.175051360000   
C      0.336092770000     0.798473625000     0.163263470000   
C      0.047820225000     0.941289550000     0.111441050000   
C      0.088059395000     0.894794150000     0.120895670000   