%BLOCK LATTICE_CART
ang    # angstrom units
  14.249960000000    0.000000000000     0.000000000000   
 -0.300417644627     18.342880061604    0.000000000000   
  0.396268311580     0.645383625804     18.610447055976  
%ENDBLOCK LATTICE_CART

%BLOCK POSITIONS_FRAC
Zn     0.297758250000     0.291970050000     0.265667500000   
Zn     0.346348650000     0.340692580000     0.202833610000   
Zn     0.401080050000     0.323507050000     0.274680450000   
Zn     0.314628720000     0.376636325000     0.275421550000   
Zn     0.321412175000     0.064980885000     0.052769135000   
Zn     0.286343250000     0.084377685000     0.474156300000   
Zn     0.387095000000     0.050476735000     0.485024050000   
Zn     0.367778000000     0.131420835000     0.007507570000   
H      0.181978550000     0.487565575000     0.350684315000   
H      0.497184250000     0.434221650000     0.409440100000   
H      0.227068050000     0.499565630000     0.294408650000   
H      0.451219900000     0.422325580000     0.465353200000   
H      0.226750135000     0.029141365000     0.190367865000   
H      0.451112950000     0.390201120000     0.064077360000   
H      0.183594435000     0.473672700000     0.174346490000   
H      0.493485950000     0.445903780000     0.080532110000   
H      0.482706700000     0.225287000000     0.441574900000   
H      0.198062720000     0.183854500000     0.319500835000   
H      0.007678630000     0.211202980000     0.380089750000   
H      0.174041090000     0.198125750000     0.381169800000   
H      0.206600470000     0.241088940000     0.063938840000   
H      0.477090030000     0.173444060000     0.194244235000   
H      0.182430600000     0.243690135000     0.127572650000   
H      0.000992955000     0.170166650000     0.130599320000   
C      0.290943115000     0.467076350000     0.381045430000   
C      0.387522670000     0.450454550000     0.377342730000   
C      0.371402470000     0.429128230000     0.316274820000   
C      0.307316630000     0.486977650000     0.442982800000   
C      0.317024500000     0.462148300000     0.412990870000   
C      0.361433600000     0.454719870000     0.345405580000   
C      0.241440860000     0.472302465000     0.381286235000   
C      0.437217980000     0.446242630000     0.377433630000   
C      0.219393500000     0.483734000000     0.350044130000   
C      0.459454950000     0.436758875000     0.409312050000   
C      0.244776515000     0.489636600000     0.318132850000   
C      0.433582000000     0.430469575000     0.441002665000   
C      0.292540350000     0.482380200000     0.316560775000   
C      0.385151500000     0.434112200000     0.441301050000   
C      0.315424850000     0.468422850000     0.347474600000   
C      0.362736970000     0.448368965000     0.410618335000   
C      0.471187050000     0.339605500000     0.253706750000   
C      0.021724120000     0.336618750000     0.254170850000   
C      0.064079655000     0.334101550000     0.254553050000   
C      0.113797180000     0.331152170000     0.254995750000   
C      0.156163765000     0.328659800000     0.255380650000   
C      0.206719200000     0.325761975000     0.255847870000   
C      0.315313800000     0.487041100000     0.145660060000   
C      0.363529050000     0.429782270000     0.112670735000   
C      0.313174665000     0.388284600000     0.151443035000   
C      0.367584250000     0.028427005000     0.107588565000   
C      0.360086920000     0.493527385000     0.128718930000   
C      0.319216520000     0.423040420000     0.130098060000   
C      0.291284800000     0.013960600000     0.165397550000   
C      0.387257500000     0.403394450000     0.092015300000   
C      0.244392990000     0.008534550000     0.175479380000   
C      0.433496000000     0.409931550000     0.080257230000   
C      0.220464675000     0.476812750000     0.167142375000   
C      0.457275250000     0.441594800000     0.089166715000   
C      0.243893800000     0.449054330000     0.150056720000   
C      0.434837950000     0.467386250000     0.109536210000   
C      0.292559415000     0.452833625000     0.141505780000   
C      0.386383150000     0.463647600000     0.117585340000   
C      0.374506250000     0.211299465000     0.406399070000   
C      0.306556000000     0.202255560000     0.352958250000   
C      0.363210950000     0.235836650000     0.312009500000   
C      0.316328900000     0.178842850000     0.447600750000   
C      0.326566725000     0.204115700000     0.416150480000   
C      0.354224900000     0.210056765000     0.343094600000   
C      0.409480400000     0.219258950000     0.431963535000   
C      0.271567250000     0.193250250000     0.327729450000   
C      0.456729350000     0.219232485000     0.421937050000   
C      0.224411950000     0.191315340000     0.338489750000   
C      0.470648300000     0.212133615000     0.386996900000   
C      0.210860790000     0.198935835000     0.373437880000   
C      0.437202215000     0.206723320000     0.360935865000   
C      0.244426535000     0.208081450000     0.398224450000   
C      0.388664425000     0.208934100000     0.369842550000   
C      0.292565165000     0.205433800000     0.389311150000   
C      0.344753475000     0.158732860000     0.072565065000   
C      0.338711800000     0.255464700000     0.185592650000   
C      0.432594330000     0.183345840000     0.110798480000   
C      0.250895770000     0.230711450000     0.147380380000   
C      0.407975700000     0.193211255000     0.182919785000   
C      0.275620250000     0.221100180000     0.075249380000   
C      0.465412020000     0.177551315000     0.137616650000   
C      0.218075885000     0.236486100000     0.120561735000   
C      0.452351125000     0.180513070000     0.173578000000   
C      0.231261050000     0.233831825000     0.084598175000   
C      0.376079950000     0.203138515000     0.155617790000   
C      0.307455850000     0.211067990000     0.102554575000   
C      0.385733785000     0.192287015000     0.120276565000   
C      0.297776550000     0.221870380000     0.137896090000   
C      0.335209400000     0.223520310000     0.162207600000   
C      0.348298300000     0.190667065000     0.095959715000   
C      0.023676040000     0.080447810000     0.005857260000   
C      0.157701850000     0.084946775000     0.002135835000   
C      0.473561885000     0.078793270000     0.007294045000   
C      0.207796590000     0.086600675000     0.000699610000   
C      0.066068455000     0.081866935000     0.004676490000   
C      0.115319325000     0.083523610000     0.003318800000   
Cl     0.203726100000     0.462568650000     0.418832650000   
Cl     0.474518050000     0.455688475000     0.339627100000   
Cl     0.323432120000     0.494496735000     0.276174650000   
Cl     0.352350600000     0.417064300000     0.479027550000   
Cl     0.318080575000     0.054081620000     0.180991680000   
Cl     0.360238435000     0.363190325000     0.076895615000   
Cl     0.209899960000     0.411378600000     0.136695760000   
Cl     0.468888520000     0.002257110000     0.128088860000   
Cl     0.397218970000     0.232245965000     0.476433200000   
Cl     0.284221300000     0.180679635000     0.283219875000   
Cl     0.457521800000     0.193735400000     0.318180085000   
Cl     0.225760565000     0.226570310000     0.439055550000   
Cl     0.453765450000     0.185224190000     0.065855375000   
Cl     0.229755640000     0.228769400000     0.192321835000   
Cl     0.391206900000     0.190266775000     0.228859485000   
Cl     0.292452425000     0.224076800000     0.029337420000   
O      0.339953700000     0.333203250000     0.254651935000   
O      0.340399700000     0.423540700000     0.292173000000   
O      0.338273970000     0.492384900000     0.467381050000   
O      0.405548425000     0.407749850000     0.320885300000   
O      0.273125350000     0.008175730000     0.438668730000   
O      0.447125200000     0.336817750000     0.283384550000   
O      0.450513930000     0.345152350000     0.223635720000   
O      0.225405780000     0.293577750000     0.252793520000   
O      0.232196985000     0.355449850000     0.259314030000   
O      0.281069070000     0.385316900000     0.176433680000   
O      0.400077880000     0.031544385000     0.082676185000   
O      0.346536600000     0.365822450000     0.149615100000   
O      0.334610375000     0.051038860000     0.109494770000   
O      0.403179400000     0.252858650000     0.308527025000   
O      0.276053150000     0.161953950000     0.451290800000   
O      0.327627150000     0.246139735000     0.294621080000   
O      0.351605415000     0.168672860000     0.465196730000   
O      0.377138315000     0.134681650000     0.072872340000   
O      0.306317500000     0.279518150000     0.185283230000   
O      0.377385465000     0.262460025000     0.201415510000   
O      0.306070350000     0.151739820000     0.056740040000   
O      0.451200750000     0.063644065000     0.482369950000   
O      0.451299500000     0.092472860000     0.033503985000   
O      0.230049500000     0.072923510000     0.474505050000   
O      0.230148165000     0.101738075000     0.025613800000   
O      0.340658950000     0.082815685000     0.004864095000   
Zn     0.297758250000     0.291970050000     0.765667500000   
Zn     0.346348650000     0.340692580000     0.702833610000   
Zn     0.401080050000     0.323507050000     0.774680450000   
Zn     0.314628720000     0.376636325000     0.775421550000   
Zn     0.321412175000     0.064980885000     0.552769135000   
Zn     0.286343250000     0.084377685000     0.974156300000   
Zn     0.387095000000     0.050476735000     0.985024050000   
Zn     0.367778000000     0.131420835000     0.507507570000   
H      0.181978550000     0.487565575000     0.850684315000   
H      0.497184250000     0.434221650000     0.909440100000   
H      0.227068050000     0.499565630000     0.794408650000   
H      0.451219900000     0.422325580000     0.965353200000   
H      0.226750135000     0.029141365000     0.690367865000   
H      0.451112950000     0.390201120000     0.564077360000   
H      0.183594435000     0.473672700000     0.674346490000   
H      0.493485950000     0.445903780000     0.580532110000   
H      0.482706700000     0.225287000000     0.941574900000   
H      0.198062720000     0.183854500000     0.819500835000   
H      0.007678630000     0.211202980000     0.880089750000   
H      0.174041090000     0.198125750000     0.881169800000   
H      0.206600470000     0.241088940000     0.563938840000   
H      0.477090030000     0.173444060000     0.694244235000   
H      0.182430600000     0.243690135000     0.627572650000   
H      0.000992955000     0.170166650000     0.630599320000   
C      0.290943115000     0.467076350000     0.881045430000   
C      0.387522670000     0.450454550000     0.877342730000   
C      0.371402470000     0.429128230000     0.816274820000   
C      0.307316630000     0.486977650000     0.942982800000   
C      0.317024500000     0.462148300000     0.912990870000   
C      0.361433600000     0.454719870000     0.845405580000   
C      0.241440860000     0.472302465000     0.881286235000   
C      0.437217980000     0.446242630000     0.877433630000   
C      0.219393500000     0.483734000000     0.850044130000   
C      0.459454950000     0.436758875000     0.909312050000   
C      0.244776515000     0.489636600000     0.818132850000   
C      0.433582000000     0.430469575000     0.941002665000   
C      0.292540350000     0.482380200000     0.816560775000   
C      0.385151500000     0.434112200000     0.941301050000   
C      0.315424850000     0.468422850000     0.847474600000   
C      0.362736970000     0.448368965000     0.910618335000   
C      0.471187050000     0.339605500000     0.753706750000   
C      0.021724120000     0.336618750000     0.754170850000   
C      0.064079655000     0.334101550000     0.754553050000   
C      0.113797180000     0.331152170000     0.754995750000   
C      0.156163765000     0.328659800000     0.755380650000   
C      0.206719200000     0.325761975000     0.755847870000   
C      0.315313800000     0.487041100000     0.645660060000   
C      0.363529050000     0.429782270000     0.612670735000   
C      0.313174665000     0.388284600000     0.651443035000   
C      0.367584250000     0.028427005000     0.607588565000   
C      0.360086920000     0.493527385000     0.628718930000   
C      0.319216520000     0.423040420000     0.630098060000   
C      0.291284800000     0.013960600000     0.665397550000   
C      0.387257500000     0.403394450000     0.592015300000   
C      0.244392990000     0.008534550000     0.675479380000   
C      0.433496000000     0.409931550000     0.580257230000   
C      0.220464675000     0.476812750000     0.667142375000   
C      0.457275250000     0.441594800000     0.589166715000   
C      0.243893800000     0.449054330000     0.650056720000   
C      0.434837950000     0.467386250000     0.609536210000   
C      0.292559415000     0.452833625000     0.641505780000   
C      0.386383150000     0.463647600000     0.617585340000   
C      0.374506250000     0.211299465000     0.906399070000   
C      0.306556000000     0.202255560000     0.852958250000   
C      0.363210950000     0.235836650000     0.812009500000   
C      0.316328900000     0.178842850000     0.947600750000   
C      0.326566725000     0.204115700000     0.916150480000   
C      0.354224900000     0.210056765000     0.843094600000   
C      0.409480400000     0.219258950000     0.931963535000   
C      0.271567250000     0.193250250000     0.827729450000   
C      0.456729350000     0.219232485000     0.921937050000   
C      0.224411950000     0.191315340000     0.838489750000   
C      0.470648300000     0.212133615000     0.886996900000   
C      0.210860790000     0.198935835000     0.873437880000   
C      0.437202215000     0.206723320000     0.860935865000   
C      0.244426535000     0.208081450000     0.898224450000   
C      0.388664425000     0.208934100000     0.869842550000   
C      0.292565165000     0.205433800000     0.889311150000   
C      0.344753475000     0.158732860000     0.572565065000   
C      0.338711800000     0.255464700000     0.685592650000   
C      0.432594330000     0.183345840000     0.610798480000   
C      0.250895770000     0.230711450000     0.647380380000   
C      0.407975700000     0.193211255000     0.682919785000   
C      0.275620250000     0.221100180000     0.575249380000   
C      0.465412020000     0.177551315000     0.637616650000   
C      0.218075885000     0.236486100000     0.620561735000   
C      0.452351125000     0.180513070000     0.673578000000   
C      0.231261050000     0.233831825000     0.584598175000   
C      0.376079950000     0.203138515000     0.655617790000   
C      0.307455850000     0.211067990000     0.602554575000   
C      0.385733785000     0.192287015000     0.620276565000   
C      0.297776550000     0.221870380000     0.637896090000   
C      0.335209400000     0.223520310000     0.662207600000   
C      0.348298300000     0.190667065000     0.595959715000   
C      0.023676040000     0.080447810000     0.505857260000   
C      0.157701850000     0.084946775000     0.502135835000   
C      0.473561885000     0.078793270000     0.507294045000   
C      0.207796590000     0.086600675000     0.500699610000   
C      0.066068455000     0.081866935000     0.504676490000   
C      0.115319325000     0.083523610000     0.503318800000   
Cl     0.203726100000     0.462568650000     0.918832650000   
Cl     0.474518050000     0.455688475000     0.839627100000   
Cl     0.323432120000     0.494496735000     0.776174650000   
Cl     0.352350600000     0.417064300000     0.979027550000   
Cl     0.318080575000     0.054081620000     0.680991680000   
Cl     0.360238435000     0.363190325000     0.576895615000   
Cl     0.209899960000     0.411378600000     0.636695760000   
Cl     0.468888520000     0.002257110000     0.628088860000   
Cl     0.397218970000     0.232245965000     0.976433200000   
Cl     0.284221300000     0.180679635000     0.783219875000   
Cl     0.457521800000     0.193735400000     0.818180085000   
Cl     0.225760565000     0.226570310000     0.939055550000   
Cl     0.453765450000     0.185224190000     0.565855375000   
Cl     0.229755640000     0.228769400000     0.692321835000   
Cl     0.391206900000     0.190266775000     0.728859485000   
Cl     0.292452425000     0.224076800000     0.529337420000   
O      0.339953700000     0.333203250000     0.754651935000   
O      0.340399700000     0.423540700000     0.792173000000   
O      0.338273970000     0.492384900000     0.967381050000   
O      0.405548425000     0.407749850000     0.820885300000   
O      0.273125350000     0.008175730000     0.938668730000   
O      0.447125200000     0.336817750000     0.783384550000   
O      0.450513930000     0.345152350000     0.723635720000   
O      0.225405780000     0.293577750000     0.752793520000   
O      0.232196985000     0.355449850000     0.759314030000   
O      0.281069070000     0.385316900000     0.676433680000   
O      0.400077880000     0.031544385000     0.582676185000   
O      0.346536600000     0.365822450000     0.649615100000   
O      0.334610375000     0.051038860000     0.609494770000   
O      0.403179400000     0.252858650000     0.808527025000   
O      0.276053150000     0.161953950000     0.951290800000   
O      0.327627150000     0.246139735000     0.794621080000   
O      0.351605415000     0.168672860000     0.965196730000   
O      0.377138315000     0.134681650000     0.572872340000   
O      0.306317500000     0.279518150000     0.685283230000   
O      0.377385465000     0.262460025000     0.701415510000   
O      0.306070350000     0.151739820000     0.556740040000   
O      0.451200750000     0.063644065000     0.982369950000   
O      0.451299500000     0.092472860000     0.533503985000   
O      0.230049500000     0.072923510000     0.974505050000   
O      0.230148165000     0.101738075000     0.525613800000   
O      0.340658950000     0.082815685000     0.504864095000   
Zn     0.297758250000     0.791970050000     0.265667500000   
Zn     0.346348650000     0.840692580000     0.202833610000   
Zn     0.401080050000     0.823507050000     0.274680450000   
Zn     0.314628720000     0.876636325000     0.275421550000   
Zn     0.321412175000     0.564980885000     0.052769135000   
Zn     0.286343250000     0.584377685000     0.474156300000   
Zn     0.387095000000     0.550476735000     0.485024050000   
Zn     0.367778000000     0.631420835000     0.007507570000   
H      0.181978550000     0.987565575000     0.350684315000   
H      0.497184250000     0.934221650000     0.409440100000   
H      0.227068050000     0.999565630000     0.294408650000   
H      0.451219900000     0.922325580000     0.465353200000   
H      0.226750135000     0.529141365000     0.190367865000   
H      0.451112950000     0.890201120000     0.064077360000   
H      0.183594435000     0.973672700000     0.174346490000   
H      0.493485950000     0.945903780000     0.080532110000   
H      0.482706700000     0.725287000000     0.441574900000   
H      0.198062720000     0.683854500000     0.319500835000   
H      0.007678630000     0.711202980000     0.380089750000   
H      0.174041090000     0.698125750000     0.381169800000   
H      0.206600470000     0.741088940000     0.063938840000   
H      0.477090030000     0.673444060000     0.194244235000   
H      0.182430600000     0.743690135000     0.127572650000   
H      0.000992955000     0.670166650000     0.130599320000   
C      0.290943115000     0.967076350000     0.381045430000   
C      0.387522670000     0.950454550000     0.377342730000   
C      0.371402470000     0.929128230000     0.316274820000   
C      0.307316630000     0.986977650000     0.442982800000   
C      0.317024500000     0.962148300000     0.412990870000   
C      0.361433600000     0.954719870000     0.345405580000   
C      0.241440860000     0.972302465000     0.381286235000   
C      0.437217980000     0.946242630000     0.377433630000   
C      0.219393500000     0.983734000000     0.350044130000   
C      0.459454950000     0.936758875000     0.409312050000   
C      0.244776515000     0.989636600000     0.318132850000   
C      0.433582000000     0.930469575000     0.441002665000   
C      0.292540350000     0.982380200000     0.316560775000   
C      0.385151500000     0.934112200000     0.441301050000   
C      0.315424850000     0.968422850000     0.347474600000   
C      0.362736970000     0.948368965000     0.410618335000   
C      0.471187050000     0.839605500000     0.253706750000   
C      0.021724120000     0.836618750000     0.254170850000   
C      0.064079655000     0.834101550000     0.254553050000   
C      0.113797180000     0.831152170000     0.254995750000   
C      0.156163765000     0.828659800000     0.255380650000   
C      0.206719200000     0.825761975000     0.255847870000   
C      0.315313800000     0.987041100000     0.145660060000   
C      0.363529050000     0.929782270000     0.112670735000   
C      0.313174665000     0.888284600000     0.151443035000   
C      0.367584250000     0.528427005000     0.107588565000   
C      0.360086920000     0.993527385000     0.128718930000   
C      0.319216520000     0.923040420000     0.130098060000   
C      0.291284800000     0.513960600000     0.165397550000   
C      0.387257500000     0.903394450000     0.092015300000   
C      0.244392990000     0.508534550000     0.175479380000   
C      0.433496000000     0.909931550000     0.080257230000   
C      0.220464675000     0.976812750000     0.167142375000   
C      0.457275250000     0.941594800000     0.089166715000   
C      0.243893800000     0.949054330000     0.150056720000   
C      0.434837950000     0.967386250000     0.109536210000   
C      0.292559415000     0.952833625000     0.141505780000   
C      0.386383150000     0.963647600000     0.117585340000   
C      0.374506250000     0.711299465000     0.406399070000   
C      0.306556000000     0.702255560000     0.352958250000   
C      0.363210950000     0.735836650000     0.312009500000   
C      0.316328900000     0.678842850000     0.447600750000   
C      0.326566725000     0.704115700000     0.416150480000   
C      0.354224900000     0.710056765000     0.343094600000   
C      0.409480400000     0.719258950000     0.431963535000   
C      0.271567250000     0.693250250000     0.327729450000   
C      0.456729350000     0.719232485000     0.421937050000   
C      0.224411950000     0.691315340000     0.338489750000   
C      0.470648300000     0.712133615000     0.386996900000   
C      0.210860790000     0.698935835000     0.373437880000   
C      0.437202215000     0.706723320000     0.360935865000   
C      0.244426535000     0.708081450000     0.398224450000   
C      0.388664425000     0.708934100000     0.369842550000   
C      0.292565165000     0.705433800000     0.389311150000   
C      0.344753475000     0.658732860000     0.072565065000   
C      0.338711800000     0.755464700000     0.185592650000   
C      0.432594330000     0.683345840000     0.110798480000   
C      0.250895770000     0.730711450000     0.147380380000   
C      0.407975700000     0.693211255000     0.182919785000   
C      0.275620250000     0.721100180000     0.075249380000   
C      0.465412020000     0.677551315000     0.137616650000   
C      0.218075885000     0.736486100000     0.120561735000   
C      0.452351125000     0.680513070000     0.173578000000   
C      0.231261050000     0.733831825000     0.084598175000   
C      0.376079950000     0.703138515000     0.155617790000   
C      0.307455850000     0.711067990000     0.102554575000   
C      0.385733785000     0.692287015000     0.120276565000   
C      0.297776550000     0.721870380000     0.137896090000   
C      0.335209400000     0.723520310000     0.162207600000   
C      0.348298300000     0.690667065000     0.095959715000   
C      0.023676040000     0.580447810000     0.005857260000   
C      0.157701850000     0.584946775000     0.002135835000   
C      0.473561885000     0.578793270000     0.007294045000   
C      0.207796590000     0.586600675000     0.000699610000   
C      0.066068455000     0.581866935000     0.004676490000   
C      0.115319325000     0.583523610000     0.003318800000   
Cl     0.203726100000     0.962568650000     0.418832650000   
Cl     0.474518050000     0.955688475000     0.339627100000   
Cl     0.323432120000     0.994496735000     0.276174650000   
Cl     0.352350600000     0.917064300000     0.479027550000   
Cl     0.318080575000     0.554081620000     0.180991680000   
Cl     0.360238435000     0.863190325000     0.076895615000   
Cl     0.209899960000     0.911378600000     0.136695760000   
Cl     0.468888520000     0.502257110000     0.128088860000   
Cl     0.397218970000     0.732245965000     0.476433200000   
Cl     0.284221300000     0.680679635000     0.283219875000   
Cl     0.457521800000     0.693735400000     0.318180085000   
Cl     0.225760565000     0.726570310000     0.439055550000   
Cl     0.453765450000     0.685224190000     0.065855375000   
Cl     0.229755640000     0.728769400000     0.192321835000   
Cl     0.391206900000     0.690266775000     0.228859485000   
Cl     0.292452425000     0.724076800000     0.029337420000   
O      0.339953700000     0.833203250000     0.254651935000   
O      0.340399700000     0.923540700000     0.292173000000   
O      0.338273970000     0.992384900000     0.467381050000   
O      0.405548425000     0.907749850000     0.320885300000   
O      0.273125350000     0.508175730000     0.438668730000   
O      0.447125200000     0.836817750000     0.283384550000   
O      0.450513930000     0.845152350000     0.223635720000   
O      0.225405780000     0.793577750000     0.252793520000   
O      0.232196985000     0.855449850000     0.259314030000   
O      0.281069070000     0.885316900000     0.176433680000   
O      0.400077880000     0.531544385000     0.082676185000   
O      0.346536600000     0.865822450000     0.149615100000   
O      0.334610375000     0.551038860000     0.109494770000   
O      0.403179400000     0.752858650000     0.308527025000   
O      0.276053150000     0.661953950000     0.451290800000   
O      0.327627150000     0.746139735000     0.294621080000   
O      0.351605415000     0.668672860000     0.465196730000   
O      0.377138315000     0.634681650000     0.072872340000   
O      0.306317500000     0.779518150000     0.185283230000   
O      0.377385465000     0.762460025000     0.201415510000   
O      0.306070350000     0.651739820000     0.056740040000   
O      0.451200750000     0.563644065000     0.482369950000   
O      0.451299500000     0.592472860000     0.033503985000   
O      0.230049500000     0.572923510000     0.474505050000   
O      0.230148165000     0.601738075000     0.025613800000   
O      0.340658950000     0.582815685000     0.004864095000   
Zn     0.297758250000     0.791970050000     0.765667500000   
Zn     0.346348650000     0.840692580000     0.702833610000   
Zn     0.401080050000     0.823507050000     0.774680450000   
Zn     0.314628720000     0.876636325000     0.775421550000   
Zn     0.321412175000     0.564980885000     0.552769135000   
Zn     0.286343250000     0.584377685000     0.974156300000   
Zn     0.387095000000     0.550476735000     0.985024050000   
Zn     0.367778000000     0.631420835000     0.507507570000   
H      0.181978550000     0.987565575000     0.850684315000   
H      0.497184250000     0.934221650000     0.909440100000   
H      0.227068050000     0.999565630000     0.794408650000   
H      0.451219900000     0.922325580000     0.965353200000   
H      0.226750135000     0.529141365000     0.690367865000   
H      0.451112950000     0.890201120000     0.564077360000   
H      0.183594435000     0.973672700000     0.674346490000   
H      0.493485950000     0.945903780000     0.580532110000   
H      0.482706700000     0.725287000000     0.941574900000   
H      0.198062720000     0.683854500000     0.819500835000   
H      0.007678630000     0.711202980000     0.880089750000   
H      0.174041090000     0.698125750000     0.881169800000   
H      0.206600470000     0.741088940000     0.563938840000   
H      0.477090030000     0.673444060000     0.694244235000   
H      0.182430600000     0.743690135000     0.627572650000   
H      0.000992955000     0.670166650000     0.630599320000   
C      0.290943115000     0.967076350000     0.881045430000   
C      0.387522670000     0.950454550000     0.877342730000   
C      0.371402470000     0.929128230000     0.816274820000   
C      0.307316630000     0.986977650000     0.942982800000   
C      0.317024500000     0.962148300000     0.912990870000   
C      0.361433600000     0.954719870000     0.845405580000   
C      0.241440860000     0.972302465000     0.881286235000   
C      0.437217980000     0.946242630000     0.877433630000   
C      0.219393500000     0.983734000000     0.850044130000   
C      0.459454950000     0.936758875000     0.909312050000   
C      0.244776515000     0.989636600000     0.818132850000   
C      0.433582000000     0.930469575000     0.941002665000   
C      0.292540350000     0.982380200000     0.816560775000   
C      0.385151500000     0.934112200000     0.941301050000   
C      0.315424850000     0.968422850000     0.847474600000   
C      0.362736970000     0.948368965000     0.910618335000   
C      0.471187050000     0.839605500000     0.753706750000   
C      0.021724120000     0.836618750000     0.754170850000   
C      0.064079655000     0.834101550000     0.754553050000   
C      0.113797180000     0.831152170000     0.754995750000   
C      0.156163765000     0.828659800000     0.755380650000   
C      0.206719200000     0.825761975000     0.755847870000   