%BLOCK LATTICE_CART
ang    # angstrom units
  25.421340000000    0.000000000000     0.000000000000   
  2.212471582704     25.657605255521    0.000000000000   
 -1.645860121714    -0.555986642629     32.736096859256  
%ENDBLOCK LATTICE_CART

%BLOCK POSITIONS_FRAC
Zn     0.173818350000     0.297743600000     0.341080700000   
Zn     0.191495420000     0.282441450000     0.382381620000   
Zn     0.202941600000     0.316103815000     0.118008165000   
Zn     0.225722550000     0.290774500000     0.080261505000   
Zn     0.497042900000     0.079782970000     0.369833320000   
Zn     0.447005870000     0.103462645000     0.351109850000   
Zn     0.081490635000     0.407697350000     0.223166950000   
Zn     0.082191065000     0.465274065000     0.219292910000   
Zn     0.436829120000     0.066647330000     0.122158060000   
Zn     0.476412950000     0.062593260000     0.089392595000   
Zn     0.321859500000     0.190245820000     0.481642850000   
Zn     0.315953435000     0.215098890000     0.023311540000   
H      0.082934230000     0.366730300000     0.261550250000   
H      0.136785210000     0.376701400000     0.285987230000   
H      0.098867225000     0.402277150000     0.297092675000   
H      0.120847730000     0.341152600000     0.250444530000   
H      0.154782725000     0.350824325000     0.173794500000   
H      0.152461425000     0.349370900000     0.139372930000   
H      0.130121950000     0.468688150000     0.181179660000   
H      0.111458635000     0.453657600000     0.199873850000   
H      0.143424660000     0.464741000000     0.207025400000   
H      0.146002300000     0.416406125000     0.202532560000   
H      0.165466600000     0.431388500000     0.184665770000   
H      0.129671620000     0.429259200000     0.157635200000   
H      0.108860700000     0.415122650000     0.174307210000   
H      0.168448730000     0.405509175000     0.143268915000   
H      0.360260100000     0.174835450000     0.419562815000   
H      0.390922750000     0.180972150000     0.471842050000   
H      0.411775350000     0.185225370000     0.443774670000   
H      0.327200500000     0.201244085000     0.433682450000   
H      0.343661800000     0.010965825000     0.136218280000   
H      0.312014430000     0.331831425000     0.067893535000   
H      0.383152300000     0.437963070000     0.094445815000   
H      0.272295835000     0.403933300000     0.110078140000   
H      0.352738320000     0.473395975000     0.163630975000   
H      0.353799500000     0.440006900000     0.154271960000   
H      0.316078215000     0.431461335000     0.172723935000   
H      0.335996715000     0.449966550000     0.189919150000   
H      0.306802400000     0.465743275000     0.177256835000   
H      0.363985050000     0.339060200000     0.093018995000   
H      0.353527750000     0.366426380000     0.108764260000   
H      0.386552700000     0.390902580000     0.099753020000   
H      0.402938900000     0.358308200000     0.096711455000   
H      0.389695825000     0.376113650000     0.074737115000   
H      0.427019985000     0.435770850000     0.119999080000   
H      0.413425835000     0.458782500000     0.138506190000   
H      0.467168600000     0.461607450000     0.119666940000   
H      0.452429800000     0.483210980000     0.138937815000   
H      0.461416100000     0.449417550000     0.144419475000   
H      0.268725350000     0.360999750000     0.135241300000   
H      0.255214400000     0.331481070000     0.125567500000   
H      0.209432150000     0.354089700000     0.132973640000   
H      0.231244565000     0.346073750000     0.155005770000   
H      0.226160690000     0.379051330000     0.146267490000   
H      0.242421500000     0.223997680000     0.025528625000   
H      0.270120920000     0.238644375000     0.075126990000   
H      0.218265565000     0.254504800000     0.050405050000   
H      0.327876420000     0.274012800000     0.053077480000   
H      0.035328640000     0.187071385000     0.391218575000   
H      0.113676785000     0.233165770000     0.360454470000   
H      0.483474200000     0.141556600000     0.426941200000   
H      0.164417150000     0.283000800000     0.327614515000   
H      0.122082875000     0.101605190000     0.399476600000   
H      0.106121885000     0.099705755000     0.422751400000   
H      0.093853200000     0.083387710000     0.399906000000   
H      0.038774780000     0.231174840000     0.287463900000   
H      0.050548830000     0.262438600000     0.285966650000   
H      0.069047150000     0.234077550000     0.275428600000   
H      0.132243550000     0.140005870000     0.386084450000   
H      0.115378895000     0.120714665000     0.366832225000   
H      0.116599120000     0.154880880000     0.363837150000   
H      0.026114580000     0.213794440000     0.316933125000   
H      0.049140455000     0.190825050000     0.304071725000   
H      0.043820485000     0.187682660000     0.330517025000   
H      0.044785240000     0.475509735000     0.151945665000   
H      0.001759815000     0.484633200000     0.182728150000   
H      0.070653655000     0.499821950000     0.171249030000   
H      0.076614835000     0.045421840000     0.168207600000   
H      0.047186160000     0.053478955000     0.181951000000   
H      0.044606225000     0.039073290000     0.156660035000   
H      0.485105200000     0.491631700000     0.145310460000   
H      0.142479600000     0.148999525000     0.155219140000   
H      0.109075280000     0.139198900000     0.152091740000   
H      0.133868830000     0.126732050000     0.134827910000   
H      0.104054585000     0.160828265000     0.118355965000   
H      0.136641475000     0.170962700000     0.121295565000   
H      0.120710010000     0.194179670000     0.155539320000   
H      0.089058595000     0.187213465000     0.147985935000   
H      0.120185115000     0.215708700000     0.045717115000   
H      0.123354205000     0.238141250000     0.067196475000   
H      0.149543750000     0.213191300000     0.062475035000   
H      0.123478835000     0.201083065000     0.091147765000   
H      0.120728875000     0.178794235000     0.069998985000   
H      0.076245910000     0.200525800000     0.059210040000   
H      0.079887385000     0.225605860000     0.076628310000   
H      0.185652375000     0.206510065000     0.170322250000   
H      0.198223325000     0.234790535000     0.159655170000   
H      0.184007885000     0.237101020000     0.184339180000   
H      0.151840240000     0.257195770000     0.158517900000   
H      0.140191125000     0.228829400000     0.168548360000   
H      0.155833780000     0.202219600000     0.138587370000   
H      0.169022830000     0.227042400000     0.127417490000   
H      0.103368720000     0.110169115000     0.045010430000   
H      0.126014380000     0.134997085000     0.049933825000   
H      0.132781100000     0.103456930000     0.061391815000   
H      0.115370430000     0.137971600000     0.086099340000   
H      0.095190570000     0.111021900000     0.083146015000   
H      0.061794700000     0.135632470000     0.062017230000   
H      0.082893060000     0.159323110000     0.056798430000   
H      0.172862290000     0.267814700000     0.132211135000   
H      0.018858850000     0.129119890000     0.073877250000   
H      0.122127250000     0.293600000000     0.081872195000   
H      0.068928295000     0.100709430000     0.124130025000   
H      0.089847385000     0.282310200000     0.101743830000   
H      0.033089215000     0.154920770000     0.130517765000   
H      0.043161405000     0.199832500000     0.136726765000   
H      0.055258060000     0.253279100000     0.103464395000   
H      0.380643400000     0.152607000000     0.028931430000   
H      0.358543575000     0.165109200000     0.071313985000   
H      0.405972900000     0.110241040000     0.034482085000   
H      0.405364800000     0.172971950000     0.078120380000   
H      0.404878000000     0.142159050000     0.090358375000   
H      0.434197700000     0.150601760000     0.077985630000   
H      0.256744025000     0.231434180000     0.081755245000   
H      0.265085400000     0.277134925000     0.053726130000   
H      0.243825600000     0.247004135000     0.030054685000   
H      0.293367850000     0.203213550000     0.068027720000   
H      0.033191455000     0.000979655000     0.243387190000   
H      0.059783165000     0.001135795000     0.305383800000   
H      0.143883170000     0.484956235000     0.290446430000   
H      0.148057340000     0.006664290000     0.269573300000   
H      0.149818570000     0.018542480000     0.295523200000   
H      0.106826990000     0.032961845000     0.277568050000   
H      0.102871620000     0.012794320000     0.299065800000   
H      0.097297520000     0.474408985000     0.276805430000   
H      0.105774805000     0.492375100000     0.254960180000   
H      0.027808185000     0.085930800000     0.238646050000   
H      0.053910220000     0.097909620000     0.255122500000   
H      0.060160130000     0.088383870000     0.229152575000   
H      0.079507985000     0.054131695000     0.252662035000   
H      0.053166935000     0.042339000000     0.236657950000   
H      0.021927875000     0.049936710000     0.264681430000   
H      0.047438835000     0.065080645000     0.279822450000   
H      0.304572075000     0.221665300000     0.441535000000   
H      0.265617580000     0.232041270000     0.475659450000   
H      0.270210200000     0.256607900000     0.425832720000   
C      0.133657725000     0.349449785000     0.262111450000   
C      0.086061710000     0.393981935000     0.285426050000   
C      0.124022005000     0.368040400000     0.274398100000   
C      0.095694525000     0.375393120000     0.273136080000   
C      0.061250930000     0.408793720000     0.280693530000   
C      0.158468380000     0.334638625000     0.266845800000   
C      0.143050925000     0.389703100000     0.165565670000   
C      0.142051100000     0.368291600000     0.177059860000   
C      0.159756885000     0.388030170000     0.147676260000   
C      0.162999540000     0.366215080000     0.136254015000   
C      0.178420530000     0.364976315000     0.118076150000   
C      0.127170310000     0.367284120000     0.195472675000   
C      0.129893510000     0.416330365000     0.171037510000   
C      0.144937590000     0.428996400000     0.188945785000   
C      0.131576570000     0.455674050000     0.194557800000   
C      0.398960650000     0.177675800000     0.431755275000   
C      0.370447785000     0.188457640000     0.469426630000   
C      0.358863050000     0.191349640000     0.450544200000   
C      0.372633500000     0.181288885000     0.432356300000   
C      0.355075250000     0.193575325000     0.487453350000   
C      0.411045550000     0.161274390000     0.415799900000   
C      0.262938900000     0.321619930000     0.079754820000   
C      0.390710600000     0.022356630000     0.121614410000   
C      0.340688950000     0.471606200000     0.125554980000   
C      0.317694250000     0.368532925000     0.082968175000   
C      0.352345850000     0.495471150000     0.126768260000   
C      0.303082465000     0.347178050000     0.077479450000   
C      0.376818420000     0.497875250000     0.118310950000   
C      0.277874400000     0.345097870000     0.085002070000   
C      0.389091000000     0.475337265000     0.108737985000   
C      0.267597500000     0.365625750000     0.098003765000   
C      0.374213900000     0.454096230000     0.103270695000   
C      0.281220225000     0.388043650000     0.101388180000   
C      0.349451200000     0.452285020000     0.111324055000   
C      0.306519000000     0.389541150000     0.094605490000   
C      0.334215800000     0.430070200000     0.105887615000   
C      0.321502050000     0.411765850000     0.100753805000   
C      0.340427280000     0.457601550000     0.157969150000   
C      0.323659350000     0.450841450000     0.175444200000   
C      0.360613350000     0.360578715000     0.093335455000   
C      0.386557250000     0.372228535000     0.091002970000   
C      0.426013825000     0.456448885000     0.124957920000   
C      0.453490850000     0.463156350000     0.132336975000   
C      0.251119800000     0.352954150000     0.127383115000   
C      0.228076400000     0.358359785000     0.141241750000   
C      0.277668650000     0.241927815000     0.032338685000   
C      0.250366150000     0.248007520000     0.072034625000   
C      0.238525850000     0.246530415000     0.053482865000   
C      0.253054770000     0.236135700000     0.036199460000   
C      0.239259420000     0.266217230000     0.087074080000   
C      0.288265375000     0.229934125000     0.014036020000   
C      0.292457600000     0.262047600000     0.043579295000   
C      0.100790590000     0.272683025000     0.297882950000   
C      0.052906820000     0.110034780000     0.425803550000   
C      0.071720995000     0.165746150000     0.383691370000   
C      0.082401450000     0.218673870000     0.341525200000   
C      0.075671105000     0.184503450000     0.368984950000   
C      0.078557650000     0.200183185000     0.356463500000   
C      0.048686175000     0.169822185000     0.394219725000   
C      0.102436730000     0.234877675000     0.345947625000   
C      0.041949265000     0.151518675000     0.407774330000   
C      0.109062745000     0.252333970000     0.331669900000   
C      0.059288475000     0.128903250000     0.411079200000   
C      0.094588175000     0.253842000000     0.312703150000   
C      0.083500220000     0.124997785000     0.401065825000   
C      0.073254920000     0.238178285000     0.308305920000   
C      0.089630060000     0.143605635000     0.386886750000   
C      0.067340770000     0.219967515000     0.322876700000   
C      0.016131360000     0.156254290000     0.417487325000   
C      0.131911850000     0.267822800000     0.336861750000   
C      0.102465210000     0.101232745000     0.405958830000   
C      0.056987850000     0.241508365000     0.288277700000   
C      0.114772715000     0.139673190000     0.375254035000   
C      0.045461605000     0.202076150000     0.318430215000   
C      0.012201950000     0.482898800000     0.120323750000   
C      0.005328220000     0.485724300000     0.141481700000   
C      0.024768200000     0.482025150000     0.155856550000   
C      0.036030570000     0.005258860000     0.187379450000   
C      0.020196550000     0.489661725000     0.176728635000   
C      0.027595980000     0.015233575000     0.207038475000   
C      0.056821465000     0.039168955000     0.171192615000   
C      0.046911365000     0.123822070000     0.100036540000   
C      0.094627515000     0.263836400000     0.109171525000   
C      0.139733375000     0.288065200000     0.091240615000   
C      0.052517070000     0.102914335000     0.113082210000   
C      0.141930250000     0.270275650000     0.107404320000   
C      0.104709975000     0.215801715000     0.128746180000   
C      0.072074840000     0.189318100000     0.090724080000   
C      0.125721080000     0.232019065000     0.126976130000   
C      0.044322425000     0.164230585000     0.119554705000   
C      0.067338585000     0.162683010000     0.087553160000   
C      0.120817570000     0.255277200000     0.115110105000   
C      0.054420540000     0.150227425000     0.102790400000   
C      0.108050750000     0.191134720000     0.141616315000   
C      0.119102320000     0.166897385000     0.129715325000   
C      0.126584815000     0.144080385000     0.143914910000   
C      0.074486880000     0.247666285000     0.110696400000   
C      0.084953720000     0.204446970000     0.074696005000   
C      0.115163675000     0.198965900000     0.075322330000   
C      0.127767710000     0.217712385000     0.061808935000   
C      0.152638550000     0.223581450000     0.137172880000   
C      0.155354590000     0.235645040000     0.158809335000   
C      0.182531760000     0.228012770000     0.168860450000   
C      0.077567160000     0.146870630000     0.069173775000   
C      0.101693550000     0.128128260000     0.075340205000   
C      0.116860850000     0.118586765000     0.056728860000   
C      0.049215520000     0.189972220000     0.122749620000   
C      0.080357050000     0.222593450000     0.117984900000   
C      0.064975640000     0.201745400000     0.109527545000   
C      0.166053710000     0.273387300000     0.117088100000   
C      0.026619205000     0.117919110000     0.086843990000   
C      0.431020825000     0.099359855000     0.061464415000   
C      0.412433625000     0.116882480000     0.049627155000   
C      0.402144650000     0.139818340000     0.057263090000   
C      0.359371100000     0.164993090000     0.054780005000   
C      0.380257150000     0.153480200000     0.045507785000   
C      0.337791680000     0.178521590000     0.042786250000   
C      0.412243365000     0.151948420000     0.077115975000   
C      0.259343750000     0.231172575000     0.031910835000   
C      0.261515230000     0.266593250000     0.067354400000   
C      0.260155975000     0.240716650000     0.067597465000   
C      0.268268170000     0.224042310000     0.050547155000   
C      0.272858085000     0.222324750000     0.013883845000   
C      0.260019330000     0.279545850000     0.086939185000   
C      0.036545160000     0.038187475000     0.313145600000   
C      0.064435005000     0.470962400000     0.233800785000   
C      0.050921710000     0.019218615000     0.298845100000   
C      0.053075880000     0.492652650000     0.247432725000   
C      0.052643440000     0.023019690000     0.278092535000   
C      0.066162175000     0.002068040000     0.264756085000   
C      0.095460885000     0.493839800000     0.269558650000   
C      0.110146255000     0.012863540000     0.283471600000   
C      0.139815330000     0.005164100000     0.284813670000   
C      0.043512185000     0.049323290000     0.268515320000   
C      0.057812215000     0.055891125000     0.249410840000   
C      0.049342880000     0.083741695000     0.242704870000   
C      0.218310200000     0.251672270000     0.425142000000   
C      0.286155400000     0.227792590000     0.448613100000   
C      0.282974125000     0.223224730000     0.468301250000   
C      0.264732330000     0.242408320000     0.436520350000   
C      0.239201785000     0.237586850000     0.437659980000   
C      0.302587150000     0.208633275000     0.481358170000   
C      0.231618200000     0.215476675000     0.448804550000   
N      0.059715090000     0.013411045000     0.179772915000   
N      0.018879970000     0.095241600000     0.092420245000   
N      0.161696465000     0.301026225000     0.091498025000   
N      0.034906895000     0.085323490000     0.108360250000   
N      0.177723380000     0.291108100000     0.107438030000   
O      0.053617075000     0.424213380000     0.294937075000   
O      0.166101850000     0.319217115000     0.252601450000   
O      0.053257605000     0.411305600000     0.261747250000   
O      0.166461320000     0.332124850000     0.285791280000   
O      0.137937485000     0.353279320000     0.210357785000   
O      0.103785450000     0.379466800000     0.196315540000   
O      0.194833965000     0.382285400000     0.115272985000   
O      0.174387025000     0.346770825000     0.104787690000   
O      0.435881400000     0.155227425000     0.417339830000   
O      0.396244450000     0.151854680000     0.401867630000   
O      0.368424175000     0.193838610000     0.005048455000   
O      0.332895950000     0.182750625000     0.486581600000   
O      0.332629650000     0.200909150000     0.448416250000   
O      0.238294215000     0.322869420000     0.085975820000   
O      0.414848775000     0.021590470000     0.114464015000   
O      0.275327050000     0.301825880000     0.069256285000   
O      0.377815950000     0.042633950000     0.131183565000   
O      0.324215300000     0.465743720000     0.140592635000   
O      0.343102400000     0.368709900000     0.076844595000   
O      0.416335450000     0.472138450000     0.108183875000   
O      0.244517325000     0.364117650000     0.108035445000   
O      0.313106400000     0.222141700000     0.014671140000   
O      0.277060270000     0.239340960000     0.497569800000   
O      0.253015520000     0.270275550000     0.103423730000   
O      0.217813090000     0.279656400000     0.082362250000   
O      0.280673950000     0.281777380000     0.050433735000   
O      0.320059850000     0.258945850000     0.045424720000   
O      0.101188100000     0.296650975000     0.303296650000   
O      0.048277570000     0.117655260000     0.444061900000   
O      0.105390700000     0.265066700000     0.279618950000   
O      0.052487055000     0.086079600000     0.420377750000   
O      0.007864645000     0.178474300000     0.422195225000   
O      0.000774525000     0.135600985000     0.420563800000   
O      0.135839535000     0.275647900000     0.354407730000   
O      0.149511485000     0.272650400000     0.321990130000   
O      0.036748905000     0.484472575000     0.116581390000   
O      0.494412700000     0.477586100000     0.106286735000   
O      0.045068360000     0.022377370000     0.220681850000   
O      0.002732135000     0.015490890000     0.210387200000   
O      0.429590750000     0.099845695000     0.081094990000   
O      0.447478700000     0.083184225000     0.052084235000   
O      0.320020950000     0.193180310000     0.052094160000   
O      0.337908850000     0.176518850000     0.023083410000   
O      0.273694550000     0.267373950000     0.101247430000   
O      0.240309775000     0.296575935000     0.089676080000   
O      0.265221050000     0.234391210000     0.497456670000   
O      0.293099500000     0.205604985000     0.015621250000   
O      0.286689250000     0.202931730000     0.053561000000   
O      0.017367455000     0.052833205000     0.303762825000   
O      0.081715300000     0.454623050000     0.243607730000   
O      0.043152430000     0.038433835000     0.333443550000   
O      0.055930300000     0.469022425000     0.213927000000   
O      0.197697640000     0.239645200000     0.420747700000   
O      0.220399485000     0.274957270000     0.418621200000   
O      0.321869200000     0.193967490000     0.473775270000   
O      0.299979750000     0.211509735000     0.000724375000   
Zn     0.173818350000     0.297743600000     0.841080700000   
Zn     0.191495420000     0.282441450000     0.882381620000   
Zn     0.202941600000     0.316103815000     0.618008165000   
Zn     0.225722550000     0.290774500000     0.580261505000   
Zn     0.497042900000     0.079782970000     0.869833320000   
Zn     0.447005870000     0.103462645000     0.851109850000   
Zn     0.081490635000     0.407697350000     0.723166950000   
Zn     0.082191065000     0.465274065000     0.719292910000   
Zn     0.436829120000     0.066647330000     0.622158060000   
Zn     0.476412950000     0.062593260000     0.589392595000   
Zn     0.321859500000     0.190245820000     0.981642850000   
Zn     0.315953435000     0.215098890000     0.523311540000   
H      0.082934230000     0.366730300000     0.761550250000   
H      0.136785210000     0.376701400000     0.785987230000   
H      0.098867225000     0.402277150000     0.797092675000   
H      0.120847730000     0.341152600000     0.750444530000   
H      0.154782725000     0.350824325000     0.673794500000   
H      0.152461425000     0.349370900000     0.639372930000   
H      0.130121950000     0.468688150000     0.681179660000   
H      0.111458635000     0.453657600000     0.699873850000   
H      0.143424660000     0.464741000000     0.707025400000   
H      0.146002300000     0.416406125000     0.702532560000   
H      0.165466600000     0.431388500000     0.684665770000   
H      0.129671620000     0.429259200000     0.657635200000   
H      0.108860700000     0.415122650000     0.674307210000   
H      0.168448730000     0.405509175000     0.643268915000   
H      0.360260100000     0.174835450000     0.919562815000   
H      0.390922750000     0.180972150000     0.971842050000   
H      0.411775350000     0.185225370000     0.943774670000   
H      0.327200500000     0.201244085000     0.933682450000   
H      0.343661800000     0.010965825000     0.636218280000   
H      0.312014430000     0.331831425000     0.567893535000   
H      0.383152300000     0.437963070000     0.594445815000   
H      0.272295835000     0.403933300000     0.610078140000   
H      0.352738320000     0.473395975000     0.663630975000   
H      0.353799500000     0.440006900000     0.654271960000   
H      0.316078215000     0.431461335000     0.672723935000   
H      0.335996715000     0.449966550000     0.689919150000   
H      0.306802400000     0.465743275000     0.677256835000   
H      0.363985050000     0.339060200000     0.593018995000   
H      0.353527750000     0.366426380000     0.608764260000   
H      0.386552700000     0.390902580000     0.599753020000   
H      0.402938900000     0.358308200000     0.596711455000   
H      0.389695825000     0.376113650000     0.574737115000   
H      0.427019985000     0.435770850000     0.619999080000   
H      0.413425835000     0.458782500000     0.638506190000   
H      0.467168600000     0.461607450000     0.619666940000   
H      0.452429800000     0.483210980000     0.638937815000   
H      0.461416100000     0.449417550000     0.644419475000   
H      0.268725350000     0.360999750000     0.635241300000   
H      0.255214400000     0.331481070000     0.625567500000   
H      0.209432150000     0.354089700000     0.632973640000   
H      0.231244565000     0.346073750000     0.655005770000   
H      0.226160690000     0.379051330000     0.646267490000   
H      0.242421500000     0.223997680000     0.525528625000   
H      0.270120920000     0.238644375000     0.575126990000   
H      0.218265565000     0.254504800000     0.550405050000   
H      0.327876420000     0.274012800000     0.553077480000   
H      0.035328640000     0.187071385000     0.891218575000   
H      0.113676785000     0.233165770000     0.860454470000   
H      0.483474200000     0.141556600000     0.926941200000   
H      0.164417150000     0.283000800000     0.827614515000   
H      0.122082875000     0.101605190000     0.899476600000   
H      0.106121885000     0.099705755000     0.922751400000   
H      0.093853200000     0.083387710000     0.899906000000   
H      0.038774780000     0.231174840000     0.787463900000   
H      0.050548830000     0.262438600000     0.785966650000   
H      0.069047150000     0.234077550000     0.775428600000   
H      0.132243550000     0.140005870000     0.886084450000   
H      0.115378895000     0.120714665000     0.866832225000   
H      0.116599120000     0.154880880000     0.863837150000   
H      0.026114580000     0.213794440000     0.816933125000   
H      0.049140455000     0.190825050000     0.804071725000   
H      0.043820485000     0.187682660000     0.830517025000   
H      0.044785240000     0.475509735000     0.651945665000   
H      0.001759815000     0.484633200000     0.682728150000   
H      0.070653655000     0.499821950000     0.671249030000   
H      0.076614835000     0.045421840000     0.668207600000   
H      0.047186160000     0.053478955000     0.681951000000   
H      0.044606225000     0.039073290000     0.656660035000   
H      0.485105200000     0.491631700000     0.645310460000   
H      0.142479600000     0.148999525000     0.655219140000   
H      0.109075280000     0.139198900000     0.652091740000   
H      0.133868830000     0.126732050000     0.634827910000   
H      0.104054585000     0.160828265000     0.618355965000   
H      0.136641475000     0.170962700000     0.621295565000   
H      0.120710010000     0.194179670000     0.655539320000   
H      0.089058595000     0.187213465000     0.647985935000   
H      0.120185115000     0.215708700000     0.545717115000   
H      0.123354205000     0.238141250000     0.567196475000   
H      0.149543750000     0.213191300000     0.562475035000   
H      0.123478835000     0.201083065000     0.591147765000   
H      0.120728875000     0.178794235000     0.569998985000   
H      0.076245910000     0.200525800000     0.559210040000   
H      0.079887385000     0.225605860000     0.576628310000   
H      0.185652375000     0.206510065000     0.670322250000   
H      0.198223325000     0.234790535000     0.659655170000   
H      0.184007885000     0.237101020000     0.684339180000   
H      0.151840240000     0.257195770000     0.658517900000   
H      0.140191125000     0.228829400000     0.668548360000   
H      0.155833780000     0.202219600000     0.638587370000   
H      0.169022830000     0.227042400000     0.627417490000   
H      0.103368720000     0.110169115000     0.545010430000   
H      0.126014380000     0.134997085000     0.549933825000   
H      0.132781100000     0.103456930000     0.561391815000   
H      0.115370430000     0.137971600000     0.586099340000   
H      0.095190570000     0.111021900000     0.583146015000   
H      0.061794700000     0.135632470000     0.562017230000   
H      0.082893060000     0.159323110000     0.556798430000   
H      0.172862290000     0.267814700000     0.632211135000   
H      0.018858850000     0.129119890000     0.573877250000   
H      0.122127250000     0.293600000000     0.581872195000   
H      0.068928295000     0.100709430000     0.624130025000   
H      0.089847385000     0.282310200000     0.601743830000   
H      0.033089215000     0.154920770000     0.630517765000   
H      0.043161405000     0.199832500000     0.636726765000   
H      0.055258060000     0.253279100000     0.603464395000   
H      0.380643400000     0.152607000000     0.528931430000   
H      0.358543575000     0.165109200000     0.571313985000   
H      0.405972900000     0.110241040000     0.534482085000   
H      0.405364800000     0.172971950000     0.578120380000   
H      0.404878000000     0.142159050000     0.590358375000   