%BLOCK LATTICE_CART
ang    # angstrom units
  9.820850000000     0.000000000000     0.000000000000   
 -0.808028857855     10.525479844994    0.000000000000   
 -1.424429255018    -0.478547941021     17.717341111693  
%ENDBLOCK LATTICE_CART

%BLOCK POSITIONS_FRAC
Zn     0.039855180000     0.139150410000     0.108943650000   
Zn     0.142745333333     0.159436106667     0.118615695000   
H      0.233883033333     0.172913266667     0.174165070000   
H      0.282834600000     0.127259553333     0.053957185000   
H      0.269703200000     0.045401080000     0.093434580000   
H      0.236732343333     0.056523963333     0.049729200000   
H      0.216845733333     0.015209810000     0.079278940000   
H      0.279935120000     0.243665376667     0.178373500000   
H      0.247006666667     0.254780550000     0.134638010000   
H      0.299862166667     0.284969100000     0.148824470000   
H      0.027662460000     0.177548533333     0.395933865000   
H      0.154761653333     0.122655266667     0.333198600000   
H      0.101818213333     0.109304310000     0.307551100000   
H      0.011904940000     0.130413880000     0.370484175000   
H      0.200284500000     0.208980100000     0.387139320000   
H      0.127776353333     0.219403533333     0.442902750000   
H      0.144296100000     0.252492400000     0.353631650000   
H      0.176362000000     0.140209276667     0.412895950000   
H      0.044915120000     0.230960433333     0.362601950000   
H      0.146671833333     0.060835346667     0.368615550000   
H      0.168018966667     0.320112633333     0.149246530000   
H      0.014512643333     0.312269333333     0.080905790000   
H      0.008567853333     0.015100560000     0.160790300000   
H      0.054785290000     0.047196386667     0.175712185000   
H      0.174189110000     0.284181500000     0.069525575000   
H      0.128122460000     0.252044833333     0.054411400000   
H      0.048389846667     0.276274066667     0.196998910000   
H      0.133891766667     0.021642486667     0.032544440000   
C      0.271249566667     0.123510466667     0.138909725000   
C      0.245468500000     0.176665400000     0.089211360000   
C      0.236070256667     0.114432246667     0.105437070000   
C      0.280647416667     0.185740566667     0.122685185000   
C      0.245776566667     0.162892520000     0.146790650000   
C      0.270941120000     0.137280306667     0.081331620000   
C      0.234793933333     0.047291383333     0.079445070000   
C      0.281907633333     0.252891333333     0.148650250000   
C      0.054522823333     0.175575733333     0.339031520000   
C      0.100071480000     0.101299800000     0.368881730000   
C      0.053334216667     0.097124776667     0.457351000000   
C      0.133040886667     0.205605983333     0.272070850000   
C      0.107103746667     0.172748633333     0.335717100000   
C      0.082741340000     0.134237033333     0.396638550000   
C      0.120679983333     0.171117443333     0.408050775000   
C      0.135879376667     0.194194666667     0.371134200000   
C      0.067994660000     0.112860733333     0.430123865000   
C      0.120804133333     0.192497610000     0.301161750000   
C      0.149102540000     0.214869580000     0.236498450000   
C      0.032110340000     0.083622226667     0.489779300000   
C      0.117373356667     0.125076483333     0.334181250000   
C      0.041047540000     0.154519033333     0.376414350000   
C      0.054521083333     0.233054023333     0.112063460000   
C      0.128147313333     0.065893690000     0.117846475000   
C      0.087769500000     0.302933513333     0.150330185000   
C      0.094751766667     0.329435600000     0.079787785000   
C      0.064502676667     0.006820440000     0.132470040000   
C      0.118064920000     0.292239486667     0.097642190000   
C      0.109100200000     0.022262333333     0.116236715000   
C      0.073462346667     0.276750700000     0.113865755000   
C      0.133395653333     0.318255933333     0.134184480000   
C      0.049141626667     0.314121500000     0.095951440000   
C      0.081885166667     0.288122653333     0.189456100000   
C      0.100249066667     0.011205833333     0.040689265000   
Br     0.050735013333     0.057848176667     0.352795300000   
Br     0.018418710000     0.146259900000     0.296115665000   
N      0.213096133333     0.153346856667     0.112842575000   
N      0.303621550000     0.146825980000     0.115279680000   
N      0.035690033333     0.034314433333     0.151579810000   
N      0.147063773333     0.264874300000     0.078613380000   
O      0.209492823333     0.075737500000     0.098372580000   
O      0.307221650000     0.224433866667     0.129753550000   
O      0.101822426667     0.200381633333     0.431407420000   
O      0.123350933333     0.197984700000     0.207571210000   
O      0.324728746667     0.063994920000     0.483594700000   
O      0.191617646667     0.231230756667     0.236762675000   
O      0.051084646667     0.100266300000     0.021867275000   
O      0.182810166667     0.190812010000     0.367017400000   
O      0.128072133333     0.237572890000     0.373520970000   
O      0.157697140000     0.155263623333     0.429714380000   
O      0.043133700000     0.217991413333     0.336977900000   
O      0.135261206667     0.080028523333     0.387384300000   
O      0.079295150000     0.204375466667     0.126505210000   
O      0.103441823333     0.094533483333     0.103270665000   
O      0.013790583333     0.225305233333     0.095882395000   
O      0.168946400000     0.073603750000     0.133893475000   
O      0.114541820000     0.289371300000     0.212929900000   
O      0.067055960000     0.011938453333     0.017954390000   
F      0.285950920000     0.094859043333     0.165122720000   
F      0.230769613333     0.205310483333     0.063000785000   
Zn     0.039855180000     0.139150410000     0.608943650000   
Zn     0.142745333333     0.159436106667     0.618615695000   
H      0.233883033333     0.172913266667     0.674165070000   
H      0.282834600000     0.127259553333     0.553957185000   
H      0.269703200000     0.045401080000     0.593434580000   
H      0.236732343333     0.056523963333     0.549729200000   
H      0.216845733333     0.015209810000     0.579278940000   
H      0.279935120000     0.243665376667     0.678373500000   
H      0.247006666667     0.254780550000     0.634638010000   
H      0.299862166667     0.284969100000     0.648824470000   
H      0.027662460000     0.177548533333     0.895933865000   
H      0.154761653333     0.122655266667     0.833198600000   
H      0.101818213333     0.109304310000     0.807551100000   
H      0.011904940000     0.130413880000     0.870484175000   
H      0.200284500000     0.208980100000     0.887139320000   
H      0.127776353333     0.219403533333     0.942902750000   
H      0.144296100000     0.252492400000     0.853631650000   
H      0.176362000000     0.140209276667     0.912895950000   
H      0.044915120000     0.230960433333     0.862601950000   
H      0.146671833333     0.060835346667     0.868615550000   
H      0.168018966667     0.320112633333     0.649246530000   
H      0.014512643333     0.312269333333     0.580905790000   
H      0.008567853333     0.015100560000     0.660790300000   
H      0.054785290000     0.047196386667     0.675712185000   
H      0.174189110000     0.284181500000     0.569525575000   
H      0.128122460000     0.252044833333     0.554411400000   
H      0.048389846667     0.276274066667     0.696998910000   
H      0.133891766667     0.021642486667     0.532544440000   
C      0.271249566667     0.123510466667     0.638909725000   
C      0.245468500000     0.176665400000     0.589211360000   
C      0.236070256667     0.114432246667     0.605437070000   
C      0.280647416667     0.185740566667     0.622685185000   
C      0.245776566667     0.162892520000     0.646790650000   
C      0.270941120000     0.137280306667     0.581331620000   
C      0.234793933333     0.047291383333     0.579445070000   
C      0.281907633333     0.252891333333     0.648650250000   
C      0.054522823333     0.175575733333     0.839031520000   
C      0.100071480000     0.101299800000     0.868881730000   
C      0.053334216667     0.097124776667     0.957351000000   
C      0.133040886667     0.205605983333     0.772070850000   
C      0.107103746667     0.172748633333     0.835717100000   
C      0.082741340000     0.134237033333     0.896638550000   
C      0.120679983333     0.171117443333     0.908050775000   
C      0.135879376667     0.194194666667     0.871134200000   
C      0.067994660000     0.112860733333     0.930123865000   
C      0.120804133333     0.192497610000     0.801161750000   
C      0.149102540000     0.214869580000     0.736498450000   
C      0.032110340000     0.083622226667     0.989779300000   
C      0.117373356667     0.125076483333     0.834181250000   
C      0.041047540000     0.154519033333     0.876414350000   
C      0.054521083333     0.233054023333     0.612063460000   
C      0.128147313333     0.065893690000     0.617846475000   
C      0.087769500000     0.302933513333     0.650330185000   
C      0.094751766667     0.329435600000     0.579787785000   
C      0.064502676667     0.006820440000     0.632470040000   
C      0.118064920000     0.292239486667     0.597642190000   
C      0.109100200000     0.022262333333     0.616236715000   
C      0.073462346667     0.276750700000     0.613865755000   
C      0.133395653333     0.318255933333     0.634184480000   
C      0.049141626667     0.314121500000     0.595951440000   
C      0.081885166667     0.288122653333     0.689456100000   
C      0.100249066667     0.011205833333     0.540689265000   
Br     0.050735013333     0.057848176667     0.852795300000   
Br     0.018418710000     0.146259900000     0.796115665000   
N      0.213096133333     0.153346856667     0.612842575000   
N      0.303621550000     0.146825980000     0.615279680000   
N      0.035690033333     0.034314433333     0.651579810000   
N      0.147063773333     0.264874300000     0.578613380000   
O      0.209492823333     0.075737500000     0.598372580000   
O      0.307221650000     0.224433866667     0.629753550000   
O      0.101822426667     0.200381633333     0.931407420000   
O      0.123350933333     0.197984700000     0.707571210000   
O      0.324728746667     0.063994920000     0.983594700000   
O      0.191617646667     0.231230756667     0.736762675000   
O      0.051084646667     0.100266300000     0.521867275000   
O      0.182810166667     0.190812010000     0.867017400000   
O      0.128072133333     0.237572890000     0.873520970000   
O      0.157697140000     0.155263623333     0.929714380000   
O      0.043133700000     0.217991413333     0.836977900000   
O      0.135261206667     0.080028523333     0.887384300000   
O      0.079295150000     0.204375466667     0.626505210000   
O      0.103441823333     0.094533483333     0.603270665000   
O      0.013790583333     0.225305233333     0.595882395000   
O      0.168946400000     0.073603750000     0.633893475000   
O      0.114541820000     0.289371300000     0.712929900000   
O      0.067055960000     0.011938453333     0.517954390000   
F      0.285950920000     0.094859043333     0.665122720000   
F      0.230769613333     0.205310483333     0.563000785000   
Zn     0.039855180000     0.472483743333     0.108943650000   
Zn     0.142745333333     0.492769440000     0.118615695000   
H      0.233883033333     0.506246600000     0.174165070000   
H      0.282834600000     0.460592886667     0.053957185000   
H      0.269703200000     0.378734413333     0.093434580000   
H      0.236732343333     0.389857296667     0.049729200000   
H      0.216845733333     0.348543143333     0.079278940000   
H      0.279935120000     0.576998710000     0.178373500000   
H      0.247006666667     0.588113883333     0.134638010000   
H      0.299862166667     0.618302433333     0.148824470000   
H      0.027662460000     0.510881866667     0.395933865000   
H      0.154761653333     0.455988600000     0.333198600000   
H      0.101818213333     0.442637643333     0.307551100000   
H      0.011904940000     0.463747213333     0.370484175000   
H      0.200284500000     0.542313433333     0.387139320000   
H      0.127776353333     0.552736866667     0.442902750000   
H      0.144296100000     0.585825733333     0.353631650000   
H      0.176362000000     0.473542610000     0.412895950000   
H      0.044915120000     0.564293766667     0.362601950000   
H      0.146671833333     0.394168680000     0.368615550000   
H      0.168018966667     0.653445966667     0.149246530000   
H      0.014512643333     0.645602666667     0.080905790000   
H      0.008567853333     0.348433893333     0.160790300000   
H      0.054785290000     0.380529720000     0.175712185000   
H      0.174189110000     0.617514833333     0.069525575000   
H      0.128122460000     0.585378166667     0.054411400000   
H      0.048389846667     0.609607400000     0.196998910000   
H      0.133891766667     0.354975820000     0.032544440000   
C      0.271249566667     0.456843800000     0.138909725000   
C      0.245468500000     0.509998733333     0.089211360000   
C      0.236070256667     0.447765580000     0.105437070000   
C      0.280647416667     0.519073900000     0.122685185000   
C      0.245776566667     0.496225853333     0.146790650000   
C      0.270941120000     0.470613640000     0.081331620000   
C      0.234793933333     0.380624716667     0.079445070000   
C      0.281907633333     0.586224666667     0.148650250000   
C      0.054522823333     0.508909066667     0.339031520000   
C      0.100071480000     0.434633133333     0.368881730000   
C      0.053334216667     0.430458110000     0.457351000000   
C      0.133040886667     0.538939316667     0.272070850000   
C      0.107103746667     0.506081966667     0.335717100000   
C      0.082741340000     0.467570366667     0.396638550000   
C      0.120679983333     0.504450776667     0.408050775000   
C      0.135879376667     0.527528000000     0.371134200000   
C      0.067994660000     0.446194066667     0.430123865000   
C      0.120804133333     0.525830943333     0.301161750000   
C      0.149102540000     0.548202913333     0.236498450000   
C      0.032110340000     0.416955560000     0.489779300000   
C      0.117373356667     0.458409816667     0.334181250000   
C      0.041047540000     0.487852366667     0.376414350000   
C      0.054521083333     0.566387356667     0.112063460000   
C      0.128147313333     0.399227023333     0.117846475000   
C      0.087769500000     0.636266846667     0.150330185000   
C      0.094751766667     0.662768933333     0.079787785000   
C      0.064502676667     0.340153773333     0.132470040000   
C      0.118064920000     0.625572820000     0.097642190000   
C      0.109100200000     0.355595666667     0.116236715000   
C      0.073462346667     0.610084033333     0.113865755000   
C      0.133395653333     0.651589266667     0.134184480000   
C      0.049141626667     0.647454833333     0.095951440000   
C      0.081885166667     0.621455986667     0.189456100000   
C      0.100249066667     0.344539166667     0.040689265000   
Br     0.050735013333     0.391181510000     0.352795300000   
Br     0.018418710000     0.479593233333     0.296115665000   
N      0.213096133333     0.486680190000     0.112842575000   
N      0.303621550000     0.480159313333     0.115279680000   
N      0.035690033333     0.367647766667     0.151579810000   
N      0.147063773333     0.598207633333     0.078613380000   
O      0.209492823333     0.409070833333     0.098372580000   
O      0.307221650000     0.557767200000     0.129753550000   
O      0.101822426667     0.533714966667     0.431407420000   
O      0.123350933333     0.531318033333     0.207571210000   
O      0.324728746667     0.397328253333     0.483594700000   
O      0.191617646667     0.564564090000     0.236762675000   
O      0.051084646667     0.433599633333     0.021867275000   
O      0.182810166667     0.524145343333     0.367017400000   
O      0.128072133333     0.570906223333     0.373520970000   
O      0.157697140000     0.488596956667     0.429714380000   
O      0.043133700000     0.551324746667     0.336977900000   
O      0.135261206667     0.413361856667     0.387384300000   
O      0.079295150000     0.537708800000     0.126505210000   
O      0.103441823333     0.427866816667     0.103270665000   
O      0.013790583333     0.558638566667     0.095882395000   
O      0.168946400000     0.406937083333     0.133893475000   
O      0.114541820000     0.622704633333     0.212929900000   
O      0.067055960000     0.345271786667     0.017954390000   
F      0.285950920000     0.428192376667     0.165122720000   
F      0.230769613333     0.538643816667     0.063000785000   
Zn     0.039855180000     0.472483743333     0.608943650000   
Zn     0.142745333333     0.492769440000     0.618615695000   
H      0.233883033333     0.506246600000     0.674165070000   
H      0.282834600000     0.460592886667     0.553957185000   
H      0.269703200000     0.378734413333     0.593434580000   
H      0.236732343333     0.389857296667     0.549729200000   
H      0.216845733333     0.348543143333     0.579278940000   
H      0.279935120000     0.576998710000     0.678373500000   
H      0.247006666667     0.588113883333     0.634638010000   
H      0.299862166667     0.618302433333     0.648824470000   
H      0.027662460000     0.510881866667     0.895933865000   
H      0.154761653333     0.455988600000     0.833198600000   
H      0.101818213333     0.442637643333     0.807551100000   
H      0.011904940000     0.463747213333     0.870484175000   
H      0.200284500000     0.542313433333     0.887139320000   
H      0.127776353333     0.552736866667     0.942902750000   
H      0.144296100000     0.585825733333     0.853631650000   
H      0.176362000000     0.473542610000     0.912895950000   
H      0.044915120000     0.564293766667     0.862601950000   
H      0.146671833333     0.394168680000     0.868615550000   
H      0.168018966667     0.653445966667     0.649246530000   
H      0.014512643333     0.645602666667     0.580905790000   
H      0.008567853333     0.348433893333     0.660790300000   
H      0.054785290000     0.380529720000     0.675712185000   
H      0.174189110000     0.617514833333     0.569525575000   
H      0.128122460000     0.585378166667     0.554411400000   
H      0.048389846667     0.609607400000     0.696998910000   
H      0.133891766667     0.354975820000     0.532544440000   
C      0.271249566667     0.456843800000     0.638909725000   
C      0.245468500000     0.509998733333     0.589211360000   
C      0.236070256667     0.447765580000     0.605437070000   
C      0.280647416667     0.519073900000     0.622685185000   
C      0.245776566667     0.496225853333     0.646790650000   
C      0.270941120000     0.470613640000     0.581331620000   
C      0.234793933333     0.380624716667     0.579445070000   
C      0.281907633333     0.586224666667     0.648650250000   
C      0.054522823333     0.508909066667     0.839031520000   
C      0.100071480000     0.434633133333     0.868881730000   
C      0.053334216667     0.430458110000     0.957351000000   
C      0.133040886667     0.538939316667     0.772070850000   
C      0.107103746667     0.506081966667     0.835717100000   
C      0.082741340000     0.467570366667     0.896638550000   
C      0.120679983333     0.504450776667     0.908050775000   
C      0.135879376667     0.527528000000     0.871134200000   
C      0.067994660000     0.446194066667     0.930123865000   
C      0.120804133333     0.525830943333     0.801161750000   
C      0.149102540000     0.548202913333     0.736498450000   
C      0.032110340000     0.416955560000     0.989779300000   
C      0.117373356667     0.458409816667     0.834181250000   
C      0.041047540000     0.487852366667     0.876414350000   
C      0.054521083333     0.566387356667     0.612063460000   
C      0.128147313333     0.399227023333     0.617846475000   
C      0.087769500000     0.636266846667     0.650330185000   
C      0.094751766667     0.662768933333     0.579787785000   
C      0.064502676667     0.340153773333     0.632470040000   
C      0.118064920000     0.625572820000     0.597642190000   
C      0.109100200000     0.355595666667     0.616236715000   
C      0.073462346667     0.610084033333     0.613865755000   
C      0.133395653333     0.651589266667     0.634184480000   
C      0.049141626667     0.647454833333     0.595951440000   
C      0.081885166667     0.621455986667     0.689456100000   
C      0.100249066667     0.344539166667     0.540689265000   
Br     0.050735013333     0.391181510000     0.852795300000   
Br     0.018418710000     0.479593233333     0.796115665000   
N      0.213096133333     0.486680190000     0.612842575000   
N      0.303621550000     0.480159313333     0.615279680000   
N      0.035690033333     0.367647766667     0.651579810000   
N      0.147063773333     0.598207633333     0.578613380000   
O      0.209492823333     0.409070833333     0.598372580000   
O      0.307221650000     0.557767200000     0.629753550000   
O      0.101822426667     0.533714966667     0.931407420000   
O      0.123350933333     0.531318033333     0.707571210000   
O      0.324728746667     0.397328253333     0.983594700000   
O      0.191617646667     0.564564090000     0.736762675000   
O      0.051084646667     0.433599633333     0.521867275000   
O      0.182810166667     0.524145343333     0.867017400000   
O      0.128072133333     0.570906223333     0.873520970000   
O      0.157697140000     0.488596956667     0.929714380000   
O      0.043133700000     0.551324746667     0.836977900000   
O      0.135261206667     0.413361856667     0.887384300000   
O      0.079295150000     0.537708800000     0.626505210000   
O      0.103441823333     0.427866816667     0.603270665000   
O      0.013790583333     0.558638566667     0.595882395000   
O      0.168946400000     0.406937083333     0.633893475000   
O      0.114541820000     0.622704633333     0.712929900000   
O      0.067055960000     0.345271786667     0.517954390000   
F      0.285950920000     0.428192376667     0.665122720000   
F      0.230769613333     0.538643816667     0.563000785000   
Zn     0.039855180000     0.805817076667     0.108943650000   
Zn     0.142745333333     0.826102773333     0.118615695000   
H      0.233883033333     0.839579933333     0.174165070000   
H      0.282834600000     0.793926220000     0.053957185000   
H      0.269703200000     0.712067746667     0.093434580000   
H      0.236732343333     0.723190630000     0.049729200000   
H      0.216845733333     0.681876476667     0.079278940000   
H      0.279935120000     0.910332043333     0.178373500000   
H      0.247006666667     0.921447216667     0.134638010000   
H      0.299862166667     0.951635766667     0.148824470000   
H      0.027662460000     0.844215200000     0.395933865000   
H      0.154761653333     0.789321933333     0.333198600000   
H      0.101818213333     0.775970976667     0.307551100000   
H      0.011904940000     0.797080546667     0.370484175000   
H      0.200284500000     0.875646766667     0.387139320000   
H      0.127776353333     0.886070200000     0.442902750000   
H      0.144296100000     0.919159066667     0.353631650000   
H      0.176362000000     0.806875943333     0.412895950000   
H      0.044915120000     0.897627100000     0.362601950000   
H      0.146671833333     0.727502013333     0.368615550000   
H      0.168018966667     0.986779300000     0.149246530000   
H      0.014512643333     0.978936000000     0.080905790000   
H      0.008567853333     0.681767226667     0.160790300000   
H      0.054785290000     0.713863053333     0.175712185000   
H      0.174189110000     0.950848166667     0.069525575000   
H      0.128122460000     0.918711500000     0.054411400000   
H      0.048389846667     0.942940733333     0.196998910000   
H      0.133891766667     0.688309153333     0.032544440000   
C      0.271249566667     0.790177133333     0.138909725000   
C      0.245468500000     0.843332066667     0.089211360000   
C      0.236070256667     0.781098913333     0.105437070000   
C      0.280647416667     0.852407233333     0.122685185000   
C      0.245776566667     0.829559186667     0.146790650000   
C      0.270941120000     0.803946973333     0.081331620000   
C      0.234793933333     0.713958050000     0.079445070000   
C      0.281907633333     0.919558000000     0.148650250000   
C      0.054522823333     0.842242400000     0.339031520000   
C      0.100071480000     0.767966466667     0.368881730000   
C      0.053334216667     0.763791443333     0.457351000000   
C      0.133040886667     0.872272650000     0.272070850000   
C      0.107103746667     0.839415300000     0.335717100000   
C      0.082741340000     0.800903700000     0.396638550000   
C      0.120679983333     0.837784110000     0.408050775000   
C      0.135879376667     0.860861333333     0.371134200000   
C      0.067994660000     0.779527400000     0.430123865000   
C      0.120804133333     0.859164276667     0.301161750000   
C      0.149102540000     0.881536246667     0.236498450000   
C      0.032110340000     0.750288893333     0.489779300000   
C      0.117373356667     0.791743150000     0.334181250000   
C      0.041047540000     0.821185700000     0.376414350000   
C      0.054521083333     0.899720690000     0.112063460000   
C      0.128147313333     0.732560356667     0.117846475000   
C      0.087769500000     0.969600180000     0.150330185000   
C      0.094751766667     0.996102266667     0.079787785000   
C      0.064502676667     0.673487106667     0.132470040000   
C      0.118064920000     0.958906153333     0.097642190000   
C      0.109100200000     0.688929000000     0.116236715000   
C      0.073462346667     0.943417366667     0.113865755000   
C      0.133395653333     0.984922600000     0.134184480000   
C      0.049141626667     0.980788166667     0.095951440000   
C      0.081885166667     0.954789320000     0.189456100000   
C      0.100249066667     0.677872500000     0.040689265000   
Br     0.050735013333     0.724514843333     0.352795300000   
Br     0.018418710000     0.812926566667     0.296115665000   
N      0.213096133333     0.820013523333     0.112842575000   
N      0.303621550000     0.813492646667     0.115279680000   
N      0.035690033333     0.700981100000     0.151579810000   
N      0.147063773333     0.931540966667     0.078613380000   
O      0.209492823333     0.742404166667     0.098372580000   
O      0.307221650000     0.891100533333     0.129753550000   
O      0.101822426667     0.867048300000     0.431407420000   
O      0.123350933333     0.864651366667     0.207571210000   
O      0.324728746667     0.730661586667     0.483594700000   
O      0.191617646667     0.897897423333     0.236762675000   
O      0.051084646667     0.766932966667     0.021867275000   
O      0.182810166667     0.857478676667     0.367017400000   
O      0.128072133333     0.904239556667     0.373520970000   
O      0.157697140000     0.821930290000     0.429714380000   
O      0.043133700000     0.884658080000     0.336977900000   
O      0.135261206667     0.746695190000     0.387384300000   
O      0.079295150000     0.871042133333     0.126505210000   
O      0.103441823333     0.761200150000     0.103270665000   
O      0.013790583333     0.891971900000     0.095882395000   
O      0.168946400000     0.740270416667     0.133893475000   
O      0.114541820000     0.956037966667     0.212929900000   
O      0.067055960000     0.678605120000     0.017954390000   
F      0.285950920000     0.761525710000     0.165122720000   
F      0.230769613333     0.871977150000     0.063000785000   
Zn     0.039855180000     0.805817076667     0.608943650000   
Zn     0.142745333333     0.826102773333     0.618615695000   
H      0.233883033333     0.839579933333     0.674165070000   
H      0.282834600000     0.793926220000     0.553957185000   
H      0.269703200000     0.712067746667     0.593434580000   
H      0.236732343333     0.723190630000     0.549729200000   
H      0.216845733333     0.681876476667     0.579278940000   
H      0.279935120000     0.910332043333     0.678373500000   
H      0.247006666667     0.921447216667     0.634638010000   
H      0.299862166667     0.951635766667     0.648824470000   
H      0.027662460000     0.844215200000     0.895933865000   
H      0.154761653333     0.789321933333     0.833198600000   
H      0.101818213333     0.775970976667     0.807551100000   
H      0.011904940000     0.797080546667     0.870484175000   
H      0.200284500000     0.875646766667     0.887139320000   
H      0.127776353333     0.886070200000     0.942902750000   
H      0.144296100000     0.919159066667     0.853631650000   
H      0.176362000000     0.806875943333     0.912895950000   
H      0.044915120000     0.897627100000     0.862601950000   
H      0.146671833333     0.727502013333     0.868615550000   
H      0.168018966667     0.986779300000     0.649246530000   
H      0.014512643333     0.978936000000     0.580905790000   
H      0.008567853333     0.681767226667     0.660790300000   
H      0.054785290000     0.713863053333     0.675712185000   
H      0.174189110000     0.950848166667     0.569525575000   
H      0.128122460000     0.918711500000     0.554411400000   
H      0.048389846667     0.942940733333     0.696998910000   
H      0.133891766667     0.688309153333     0.532544440000   
C      0.271249566667     0.790177133333     0.638909725000   
C      0.245468500000     0.843332066667     0.589211360000   
C      0.236070256667     0.781098913333     0.605437070000   
C      0.280647416667     0.852407233333     0.622685185000   