%BLOCK LATTICE_CART
ang    # angstrom units
  10.445730000000    0.000000000000     0.000000000000   
  0.150462961314     11.131673168638    0.000000000000   
 -0.701741546046    -0.025162980799     16.670217473895  
%ENDBLOCK LATTICE_CART

%BLOCK POSITIONS_FRAC
Cu     0.175359635000     0.292382750000     0.073103550000   
Cu     0.216982900000     0.182770580000     0.091391325000   
H      0.248954000000     0.462452680000     0.020585070000   
H      0.138020130000     0.393364900000     0.203144135000   
H      0.168926250000     0.493501450000     0.224366470000   
H      0.197579115000     0.061462285000     0.027758890000   
H      0.141848300000     0.302228600000     0.178651600000   
H      0.214407500000     0.145637750000     0.223206060000   
H      0.166395275000     0.292963835000     0.209188400000   
H      0.247884510000     0.196085930000     0.466449080000   
H      0.211276000000     0.134707270000     0.292707175000   
H      0.239393415000     0.394058900000     0.406588450000   
H      0.247197690000     0.390365125000     0.334228150000   
H      0.254454100000     0.145033760000     0.360916970000   
C      0.255587950000     0.373951950000     0.074471465000   
C      0.165789750000     0.404400200000     0.141471090000   
C      0.156953690000     0.423134835000     0.181139870000   
C      0.171028465000     0.481717675000     0.192940070000   
C      0.185263725000     0.025060000000     0.164329765000   
C      0.184589015000     0.007985175000     0.123210425000   
C      0.190590980000     0.446437480000     0.114247040000   
C      0.221137940000     0.430934950000     0.078496345000   
C      0.226612800000     0.473966500000     0.048364385000   
C      0.199661350000     0.030920150000     0.053015630000   
C      0.176416200000     0.048243045000     0.090211130000   
C      0.135541560000     0.102788685000     0.092602560000   
C      0.132045390000     0.349507100000     0.126444370000   
C      0.209683075000     0.084094405000     0.178747415000   
C      0.407308800000     0.232156960000     0.082400240000   
C      0.477995365000     0.237981950000     0.082202435000   
C      0.198504450000     0.255452780000     0.204518080000   
C      0.210158915000     0.229413200000     0.465664750000   
C      0.255246600000     0.169465600000     0.213165865000   
C      0.156639450000     0.315715550000     0.457538070000   
C      0.223678230000     0.215593130000     0.233295025000   
C      0.208743750000     0.282385825000     0.444211200000   
C      0.228174150000     0.227087150000     0.276405485000   
C      0.257364400000     0.298318625000     0.415080050000   
C      0.252466100000     0.184114890000     0.341613550000   
C      0.254372925000     0.349299350000     0.351181950000   
C      0.227827190000     0.178258790000     0.302730230000   
C      0.251301450000     0.351771300000     0.392841750000   
C      0.240623650000     0.285492270000     0.291476700000   
C      0.286047400000     0.249196850000     0.396434935000   
C      0.255060200000     0.292556880000     0.332481025000   
C      0.268108900000     0.240989950000     0.356278750000   
N      0.350703600000     0.227786780000     0.082475925000   
N      0.034513295000     0.242725940000     0.082031740000   
N      0.218388185000     0.237725200000     0.168901850000   
N      0.168575735000     0.233453335000     0.494502850000   
N      0.254695535000     0.183516620000     0.174288550000   
N      0.132268370000     0.287661880000     0.489116150000   
N      0.270398170000     0.110527165000     0.228202900000   
N      0.148553370000     0.378711850000     0.451597200000   
N      0.240749800000     0.336738230000     0.265537050000   
N      0.331567675000     0.210235300000     0.417666500000   
O      0.317965850000     0.372093200000     0.078242875000   
O      0.222503350000     0.327135250000     0.065744945000   
O      0.112001120000     0.115868330000     0.126857015000   
O      0.119346285000     0.133492950000     0.060245165000   
O      0.107283085000     0.349763780000     0.092627480000   
O      0.123122685000     0.299047750000     0.150404900000   
O      0.243734450000     0.113892555000     0.157681600000   
O      0.194901170000     0.105090620000     0.216839090000   
O      0.308508800000     0.103547000000     0.259758235000   
O      0.257403250000     0.064109260000     0.205749380000   
O      0.186498225000     0.415656775000     0.470888735000   
O      0.111361215000     0.398414100000     0.422144325000   
O      0.290258150000     0.346942900000     0.244305750000   
O      0.192958625000     0.374860950000     0.264720050000   
O      0.357434300000     0.227644800000     0.451853550000   
O      0.357241185000     0.164484380000     0.399722130000   
Cu     0.175359635000     0.292382750000     0.573103550000   
Cu     0.216982900000     0.182770580000     0.591391325000   
H      0.248954000000     0.462452680000     0.520585070000   
H      0.138020130000     0.393364900000     0.703144135000   
H      0.168926250000     0.493501450000     0.724366470000   
H      0.197579115000     0.061462285000     0.527758890000   
H      0.141848300000     0.302228600000     0.678651600000   
H      0.214407500000     0.145637750000     0.723206060000   
H      0.166395275000     0.292963835000     0.709188400000   
H      0.247884510000     0.196085930000     0.966449080000   
H      0.211276000000     0.134707270000     0.792707175000   
H      0.239393415000     0.394058900000     0.906588450000   
H      0.247197690000     0.390365125000     0.834228150000   
H      0.254454100000     0.145033760000     0.860916970000   
C      0.255587950000     0.373951950000     0.574471465000   
C      0.165789750000     0.404400200000     0.641471090000   
C      0.156953690000     0.423134835000     0.681139870000   
C      0.171028465000     0.481717675000     0.692940070000   
C      0.185263725000     0.025060000000     0.664329765000   
C      0.184589015000     0.007985175000     0.623210425000   
C      0.190590980000     0.446437480000     0.614247040000   
C      0.221137940000     0.430934950000     0.578496345000   
C      0.226612800000     0.473966500000     0.548364385000   
C      0.199661350000     0.030920150000     0.553015630000   
C      0.176416200000     0.048243045000     0.590211130000   
C      0.135541560000     0.102788685000     0.592602560000   
C      0.132045390000     0.349507100000     0.626444370000   
C      0.209683075000     0.084094405000     0.678747415000   
C      0.407308800000     0.232156960000     0.582400240000   
C      0.477995365000     0.237981950000     0.582202435000   
C      0.198504450000     0.255452780000     0.704518080000   
C      0.210158915000     0.229413200000     0.965664750000   
C      0.255246600000     0.169465600000     0.713165865000   
C      0.156639450000     0.315715550000     0.957538070000   
C      0.223678230000     0.215593130000     0.733295025000   
C      0.208743750000     0.282385825000     0.944211200000   
C      0.228174150000     0.227087150000     0.776405485000   
C      0.257364400000     0.298318625000     0.915080050000   
C      0.252466100000     0.184114890000     0.841613550000   
C      0.254372925000     0.349299350000     0.851181950000   
C      0.227827190000     0.178258790000     0.802730230000   
C      0.251301450000     0.351771300000     0.892841750000   
C      0.240623650000     0.285492270000     0.791476700000   
C      0.286047400000     0.249196850000     0.896434935000   
C      0.255060200000     0.292556880000     0.832481025000   
C      0.268108900000     0.240989950000     0.856278750000   
N      0.350703600000     0.227786780000     0.582475925000   
N      0.034513295000     0.242725940000     0.582031740000   
N      0.218388185000     0.237725200000     0.668901850000   
N      0.168575735000     0.233453335000     0.994502850000   
N      0.254695535000     0.183516620000     0.674288550000   
N      0.132268370000     0.287661880000     0.989116150000   
N      0.270398170000     0.110527165000     0.728202900000   
N      0.148553370000     0.378711850000     0.951597200000   
N      0.240749800000     0.336738230000     0.765537050000   
N      0.331567675000     0.210235300000     0.917666500000   
O      0.317965850000     0.372093200000     0.578242875000   
O      0.222503350000     0.327135250000     0.565744945000   
O      0.112001120000     0.115868330000     0.626857015000   
O      0.119346285000     0.133492950000     0.560245165000   
O      0.107283085000     0.349763780000     0.592627480000   
O      0.123122685000     0.299047750000     0.650404900000   
O      0.243734450000     0.113892555000     0.657681600000   
O      0.194901170000     0.105090620000     0.716839090000   
O      0.308508800000     0.103547000000     0.759758235000   
O      0.257403250000     0.064109260000     0.705749380000   
O      0.186498225000     0.415656775000     0.970888735000   
O      0.111361215000     0.398414100000     0.922144325000   
O      0.290258150000     0.346942900000     0.744305750000   
O      0.192958625000     0.374860950000     0.764720050000   
O      0.357434300000     0.227644800000     0.951853550000   
O      0.357241185000     0.164484380000     0.899722130000   
Cu     0.175359635000     0.792382750000     0.073103550000   
Cu     0.216982900000     0.682770580000     0.091391325000   
H      0.248954000000     0.962452680000     0.020585070000   
H      0.138020130000     0.893364900000     0.203144135000   
H      0.168926250000     0.993501450000     0.224366470000   
H      0.197579115000     0.561462285000     0.027758890000   
H      0.141848300000     0.802228600000     0.178651600000   
H      0.214407500000     0.645637750000     0.223206060000   
H      0.166395275000     0.792963835000     0.209188400000   
H      0.247884510000     0.696085930000     0.466449080000   
H      0.211276000000     0.634707270000     0.292707175000   
H      0.239393415000     0.894058900000     0.406588450000   
H      0.247197690000     0.890365125000     0.334228150000   
H      0.254454100000     0.645033760000     0.360916970000   
C      0.255587950000     0.873951950000     0.074471465000   
C      0.165789750000     0.904400200000     0.141471090000   
C      0.156953690000     0.923134835000     0.181139870000   
C      0.171028465000     0.981717675000     0.192940070000   
C      0.185263725000     0.525060000000     0.164329765000   
C      0.184589015000     0.507985175000     0.123210425000   
C      0.190590980000     0.946437480000     0.114247040000   
C      0.221137940000     0.930934950000     0.078496345000   
C      0.226612800000     0.973966500000     0.048364385000   
C      0.199661350000     0.530920150000     0.053015630000   
C      0.176416200000     0.548243045000     0.090211130000   
C      0.135541560000     0.602788685000     0.092602560000   
C      0.132045390000     0.849507100000     0.126444370000   
C      0.209683075000     0.584094405000     0.178747415000   
C      0.407308800000     0.732156960000     0.082400240000   
C      0.477995365000     0.737981950000     0.082202435000   
C      0.198504450000     0.755452780000     0.204518080000   
C      0.210158915000     0.729413200000     0.465664750000   
C      0.255246600000     0.669465600000     0.213165865000   
C      0.156639450000     0.815715550000     0.457538070000   
C      0.223678230000     0.715593130000     0.233295025000   
C      0.208743750000     0.782385825000     0.444211200000   
C      0.228174150000     0.727087150000     0.276405485000   
C      0.257364400000     0.798318625000     0.415080050000   
C      0.252466100000     0.684114890000     0.341613550000   
C      0.254372925000     0.849299350000     0.351181950000   
C      0.227827190000     0.678258790000     0.302730230000   
C      0.251301450000     0.851771300000     0.392841750000   
C      0.240623650000     0.785492270000     0.291476700000   
C      0.286047400000     0.749196850000     0.396434935000   
C      0.255060200000     0.792556880000     0.332481025000   
C      0.268108900000     0.740989950000     0.356278750000   
N      0.350703600000     0.727786780000     0.082475925000   
N      0.034513295000     0.742725940000     0.082031740000   
N      0.218388185000     0.737725200000     0.168901850000   
N      0.168575735000     0.733453335000     0.494502850000   
N      0.254695535000     0.683516620000     0.174288550000   
N      0.132268370000     0.787661880000     0.489116150000   
N      0.270398170000     0.610527165000     0.228202900000   
N      0.148553370000     0.878711850000     0.451597200000   
N      0.240749800000     0.836738230000     0.265537050000   
N      0.331567675000     0.710235300000     0.417666500000   
O      0.317965850000     0.872093200000     0.078242875000   
O      0.222503350000     0.827135250000     0.065744945000   
O      0.112001120000     0.615868330000     0.126857015000   
O      0.119346285000     0.633492950000     0.060245165000   
O      0.107283085000     0.849763780000     0.092627480000   
O      0.123122685000     0.799047750000     0.150404900000   
O      0.243734450000     0.613892555000     0.157681600000   
O      0.194901170000     0.605090620000     0.216839090000   
O      0.308508800000     0.603547000000     0.259758235000   
O      0.257403250000     0.564109260000     0.205749380000   
O      0.186498225000     0.915656775000     0.470888735000   
O      0.111361215000     0.898414100000     0.422144325000   
O      0.290258150000     0.846942900000     0.244305750000   
O      0.192958625000     0.874860950000     0.264720050000   
O      0.357434300000     0.727644800000     0.451853550000   
O      0.357241185000     0.664484380000     0.399722130000   
Cu     0.175359635000     0.792382750000     0.573103550000   
Cu     0.216982900000     0.682770580000     0.591391325000   
H      0.248954000000     0.962452680000     0.520585070000   
H      0.138020130000     0.893364900000     0.703144135000   
H      0.168926250000     0.993501450000     0.724366470000   
H      0.197579115000     0.561462285000     0.527758890000   
H      0.141848300000     0.802228600000     0.678651600000   
H      0.214407500000     0.645637750000     0.723206060000   
H      0.166395275000     0.792963835000     0.709188400000   
H      0.247884510000     0.696085930000     0.966449080000   
H      0.211276000000     0.634707270000     0.792707175000   
H      0.239393415000     0.894058900000     0.906588450000   
H      0.247197690000     0.890365125000     0.834228150000   
H      0.254454100000     0.645033760000     0.860916970000   
C      0.255587950000     0.873951950000     0.574471465000   
C      0.165789750000     0.904400200000     0.641471090000   
C      0.156953690000     0.923134835000     0.681139870000   
C      0.171028465000     0.981717675000     0.692940070000   
C      0.185263725000     0.525060000000     0.664329765000   
C      0.184589015000     0.507985175000     0.623210425000   
C      0.190590980000     0.946437480000     0.614247040000   
C      0.221137940000     0.930934950000     0.578496345000   
C      0.226612800000     0.973966500000     0.548364385000   
C      0.199661350000     0.530920150000     0.553015630000   
C      0.176416200000     0.548243045000     0.590211130000   
C      0.135541560000     0.602788685000     0.592602560000   
C      0.132045390000     0.849507100000     0.626444370000   
C      0.209683075000     0.584094405000     0.678747415000   
C      0.407308800000     0.732156960000     0.582400240000   
C      0.477995365000     0.737981950000     0.582202435000   
C      0.198504450000     0.755452780000     0.704518080000   
C      0.210158915000     0.729413200000     0.965664750000   
C      0.255246600000     0.669465600000     0.713165865000   
C      0.156639450000     0.815715550000     0.957538070000   
C      0.223678230000     0.715593130000     0.733295025000   
C      0.208743750000     0.782385825000     0.944211200000   
C      0.228174150000     0.727087150000     0.776405485000   
C      0.257364400000     0.798318625000     0.915080050000   
C      0.252466100000     0.684114890000     0.841613550000   
C      0.254372925000     0.849299350000     0.851181950000   
C      0.227827190000     0.678258790000     0.802730230000   
C      0.251301450000     0.851771300000     0.892841750000   
C      0.240623650000     0.785492270000     0.791476700000   
C      0.286047400000     0.749196850000     0.896434935000   
C      0.255060200000     0.792556880000     0.832481025000   
C      0.268108900000     0.740989950000     0.856278750000   
N      0.350703600000     0.727786780000     0.582475925000   
N      0.034513295000     0.742725940000     0.582031740000   
N      0.218388185000     0.737725200000     0.668901850000   
N      0.168575735000     0.733453335000     0.994502850000   
N      0.254695535000     0.683516620000     0.674288550000   
N      0.132268370000     0.787661880000     0.989116150000   
N      0.270398170000     0.610527165000     0.728202900000   
N      0.148553370000     0.878711850000     0.951597200000   
N      0.240749800000     0.836738230000     0.765537050000   
N      0.331567675000     0.710235300000     0.917666500000   
O      0.317965850000     0.872093200000     0.578242875000   
O      0.222503350000     0.827135250000     0.565744945000   
O      0.112001120000     0.615868330000     0.626857015000   
O      0.119346285000     0.633492950000     0.560245165000   
O      0.107283085000     0.849763780000     0.592627480000   
O      0.123122685000     0.799047750000     0.650404900000   
O      0.243734450000     0.613892555000     0.657681600000   
O      0.194901170000     0.605090620000     0.716839090000   
O      0.308508800000     0.603547000000     0.759758235000   
O      0.257403250000     0.564109260000     0.705749380000   
O      0.186498225000     0.915656775000     0.970888735000   
O      0.111361215000     0.898414100000     0.922144325000   
O      0.290258150000     0.846942900000     0.744305750000   
O      0.192958625000     0.874860950000     0.764720050000   
O      0.357434300000     0.727644800000     0.951853550000   
O      0.357241185000     0.664484380000     0.899722130000   
Cu     0.675359635000     0.292382750000     0.073103550000   
Cu     0.716982900000     0.182770580000     0.091391325000   
H      0.748954000000     0.462452680000     0.020585070000   
H      0.638020130000     0.393364900000     0.203144135000   
H      0.668926250000     0.493501450000     0.224366470000   
H      0.697579115000     0.061462285000     0.027758890000   
H      0.641848300000     0.302228600000     0.178651600000   
H      0.714407500000     0.145637750000     0.223206060000   
H      0.666395275000     0.292963835000     0.209188400000   
H      0.747884510000     0.196085930000     0.466449080000   
H      0.711276000000     0.134707270000     0.292707175000   
H      0.739393415000     0.394058900000     0.406588450000   
H      0.747197690000     0.390365125000     0.334228150000   
H      0.754454100000     0.145033760000     0.360916970000   
C      0.755587950000     0.373951950000     0.074471465000   
C      0.665789750000     0.404400200000     0.141471090000   
C      0.656953690000     0.423134835000     0.181139870000   
C      0.671028465000     0.481717675000     0.192940070000   
C      0.685263725000     0.025060000000     0.164329765000   
C      0.684589015000     0.007985175000     0.123210425000   
C      0.690590980000     0.446437480000     0.114247040000   
C      0.721137940000     0.430934950000     0.078496345000   
C      0.726612800000     0.473966500000     0.048364385000   
C      0.699661350000     0.030920150000     0.053015630000   
C      0.676416200000     0.048243045000     0.090211130000   
C      0.635541560000     0.102788685000     0.092602560000   
C      0.632045390000     0.349507100000     0.126444370000   
C      0.709683075000     0.084094405000     0.178747415000   
C      0.907308800000     0.232156960000     0.082400240000   
C      0.977995365000     0.237981950000     0.082202435000   
C      0.698504450000     0.255452780000     0.204518080000   
C      0.710158915000     0.229413200000     0.465664750000   
C      0.755246600000     0.169465600000     0.213165865000   
C      0.656639450000     0.315715550000     0.457538070000   
C      0.723678230000     0.215593130000     0.233295025000   
C      0.708743750000     0.282385825000     0.444211200000   
C      0.728174150000     0.227087150000     0.276405485000   
C      0.757364400000     0.298318625000     0.415080050000   
C      0.752466100000     0.184114890000     0.341613550000   
C      0.754372925000     0.349299350000     0.351181950000   
C      0.727827190000     0.178258790000     0.302730230000   
C      0.751301450000     0.351771300000     0.392841750000   
C      0.740623650000     0.285492270000     0.291476700000   
C      0.786047400000     0.249196850000     0.396434935000   
C      0.755060200000     0.292556880000     0.332481025000   
C      0.768108900000     0.240989950000     0.356278750000   
N      0.850703600000     0.227786780000     0.082475925000   
N      0.534513295000     0.242725940000     0.082031740000   
N      0.718388185000     0.237725200000     0.168901850000   
N      0.668575735000     0.233453335000     0.494502850000   
N      0.754695535000     0.183516620000     0.174288550000   
N      0.632268370000     0.287661880000     0.489116150000   
N      0.770398170000     0.110527165000     0.228202900000   
N      0.648553370000     0.378711850000     0.451597200000   
N      0.740749800000     0.336738230000     0.265537050000   
N      0.831567675000     0.210235300000     0.417666500000   
O      0.817965850000     0.372093200000     0.078242875000   
O      0.722503350000     0.327135250000     0.065744945000   
O      0.612001120000     0.115868330000     0.126857015000   
O      0.619346285000     0.133492950000     0.060245165000   
O      0.607283085000     0.349763780000     0.092627480000   
O      0.623122685000     0.299047750000     0.150404900000   
O      0.743734450000     0.113892555000     0.157681600000   
O      0.694901170000     0.105090620000     0.216839090000   
O      0.808508800000     0.103547000000     0.259758235000   
O      0.757403250000     0.064109260000     0.205749380000   
O      0.686498225000     0.415656775000     0.470888735000   
O      0.611361215000     0.398414100000     0.422144325000   
O      0.790258150000     0.346942900000     0.244305750000   
O      0.692958625000     0.374860950000     0.264720050000   
O      0.857434300000     0.227644800000     0.451853550000   
O      0.857241185000     0.164484380000     0.399722130000   
Cu     0.675359635000     0.292382750000     0.573103550000   
Cu     0.716982900000     0.182770580000     0.591391325000   
H      0.748954000000     0.462452680000     0.520585070000   
H      0.638020130000     0.393364900000     0.703144135000   
H      0.668926250000     0.493501450000     0.724366470000   
H      0.697579115000     0.061462285000     0.527758890000   
H      0.641848300000     0.302228600000     0.678651600000   
H      0.714407500000     0.145637750000     0.723206060000   
H      0.666395275000     0.292963835000     0.709188400000   
H      0.747884510000     0.196085930000     0.966449080000   
H      0.711276000000     0.134707270000     0.792707175000   
H      0.739393415000     0.394058900000     0.906588450000   
H      0.747197690000     0.390365125000     0.834228150000   
H      0.754454100000     0.145033760000     0.860916970000   
C      0.755587950000     0.373951950000     0.574471465000   
C      0.665789750000     0.404400200000     0.641471090000   
C      0.656953690000     0.423134835000     0.681139870000   
C      0.671028465000     0.481717675000     0.692940070000   
C      0.685263725000     0.025060000000     0.664329765000   
C      0.684589015000     0.007985175000     0.623210425000   
C      0.690590980000     0.446437480000     0.614247040000   
C      0.721137940000     0.430934950000     0.578496345000   
C      0.726612800000     0.473966500000     0.548364385000   
C      0.699661350000     0.030920150000     0.553015630000   
C      0.676416200000     0.048243045000     0.590211130000   
C      0.635541560000     0.102788685000     0.592602560000   
C      0.632045390000     0.349507100000     0.626444370000   
C      0.709683075000     0.084094405000     0.678747415000   
C      0.907308800000     0.232156960000     0.582400240000   
C      0.977995365000     0.237981950000     0.582202435000   
C      0.698504450000     0.255452780000     0.704518080000   
C      0.710158915000     0.229413200000     0.965664750000   
C      0.755246600000     0.169465600000     0.713165865000   
C      0.656639450000     0.315715550000     0.957538070000   
C      0.723678230000     0.215593130000     0.733295025000   
C      0.708743750000     0.282385825000     0.944211200000   
C      0.728174150000     0.227087150000     0.776405485000   
C      0.757364400000     0.298318625000     0.915080050000   
C      0.752466100000     0.184114890000     0.841613550000   
C      0.754372925000     0.349299350000     0.851181950000   
C      0.727827190000     0.178258790000     0.802730230000   
C      0.751301450000     0.351771300000     0.892841750000   
C      0.740623650000     0.285492270000     0.791476700000   
C      0.786047400000     0.249196850000     0.896434935000   
C      0.755060200000     0.292556880000     0.832481025000   
C      0.768108900000     0.240989950000     0.856278750000   
N      0.850703600000     0.227786780000     0.582475925000   
N      0.534513295000     0.242725940000     0.582031740000   
N      0.718388185000     0.237725200000     0.668901850000   
N      0.668575735000     0.233453335000     0.994502850000   
N      0.754695535000     0.183516620000     0.674288550000   
N      0.632268370000     0.287661880000     0.989116150000   
N      0.770398170000     0.110527165000     0.728202900000   
N      0.648553370000     0.378711850000     0.951597200000   
N      0.740749800000     0.336738230000     0.765537050000   
N      0.831567675000     0.210235300000     0.917666500000   
O      0.817965850000     0.372093200000     0.578242875000   
O      0.722503350000     0.327135250000     0.565744945000   
O      0.612001120000     0.115868330000     0.626857015000   
O      0.619346285000     0.133492950000     0.560245165000   
O      0.607283085000     0.349763780000     0.592627480000   
O      0.623122685000     0.299047750000     0.650404900000   
O      0.743734450000     0.113892555000     0.657681600000   
O      0.694901170000     0.105090620000     0.716839090000   
O      0.808508800000     0.103547000000     0.759758235000   
O      0.757403250000     0.064109260000     0.705749380000   
O      0.686498225000     0.415656775000     0.970888735000   
O      0.611361215000     0.398414100000     0.922144325000   
O      0.790258150000     0.346942900000     0.744305750000   
O      0.692958625000     0.374860950000     0.764720050000   
O      0.857434300000     0.227644800000     0.951853550000   
O      0.857241185000     0.164484380000     0.899722130000   
Cu     0.675359635000     0.792382750000     0.073103550000   
Cu     0.716982900000     0.682770580000     0.091391325000   
H      0.748954000000     0.962452680000     0.020585070000   
H      0.638020130000     0.893364900000     0.203144135000   
H      0.668926250000     0.993501450000     0.224366470000   
H      0.697579115000     0.561462285000     0.027758890000   
H      0.641848300000     0.802228600000     0.178651600000   
H      0.714407500000     0.645637750000     0.223206060000   
H      0.666395275000     0.792963835000     0.209188400000   
H      0.747884510000     0.696085930000     0.466449080000   
H      0.711276000000     0.634707270000     0.292707175000   
H      0.739393415000     0.894058900000     0.406588450000   
H      0.747197690000     0.890365125000     0.334228150000   
H      0.754454100000     0.645033760000     0.360916970000   
C      0.755587950000     0.873951950000     0.074471465000   
C      0.665789750000     0.904400200000     0.141471090000   
C      0.656953690000     0.923134835000     0.181139870000   
C      0.671028465000     0.981717675000     0.192940070000   
C      0.685263725000     0.525060000000     0.164329765000   
C      0.684589015000     0.507985175000     0.123210425000   
C      0.690590980000     0.946437480000     0.114247040000   
C      0.721137940000     0.930934950000     0.078496345000   
C      0.726612800000     0.973966500000     0.048364385000   
C      0.699661350000     0.530920150000     0.053015630000   
C      0.676416200000     0.548243045000     0.090211130000   
C      0.635541560000     0.602788685000     0.092602560000   
C      0.632045390000     0.849507100000     0.126444370000   
C      0.709683075000     0.584094405000     0.178747415000   
C      0.907308800000     0.732156960000     0.082400240000   
C      0.977995365000     0.737981950000     0.082202435000   
C      0.698504450000     0.755452780000     0.204518080000   
C      0.710158915000     0.729413200000     0.465664750000   
C      0.755246600000     0.669465600000     0.213165865000   
C      0.656639450000     0.815715550000     0.457538070000   
C      0.723678230000     0.715593130000     0.233295025000   
C      0.708743750000     0.782385825000     0.444211200000   
C      0.728174150000     0.727087150000     0.276405485000   
C      0.757364400000     0.798318625000     0.415080050000   
C      0.752466100000     0.684114890000     0.341613550000   
C      0.754372925000     0.849299350000     0.351181950000   