%BLOCK LATTICE_CART
ang    # angstrom units
  15.153830000000    0.000000000000     0.000000000000   
 -2.290957637366     15.423886692847    0.000000000000   
 -1.302397285652     1.331796978097     15.897437421152  
%ENDBLOCK LATTICE_CART

%BLOCK POSITIONS_FRAC
Zn     0.222934975000     0.157026770000     0.014593295000   
Zn     0.287537575000     0.240387215000     0.494445800000   
H      0.150278330000     0.438906430000     0.429816575000   
H      0.222770700000     0.343722100000     0.000683655000   
H      0.293780300000     0.053081990000     0.488144935000   
H      0.386050520000     0.379712900000     0.031041405000   
H      0.138640600000     0.015061080000     0.428428800000   
H      0.195292710000     0.382235465000     0.450750350000   
H      0.338804930000     0.011449515000     0.476137950000   
H      0.382125675000     0.454937100000     0.002731840000   
H      0.057128190000     0.246225385000     0.463357950000   
H      0.371869980000     0.166937815000     0.497479700000   
H      0.131662430000     0.223368000000     0.466578750000   
H      0.406296050000     0.312614770000     0.484737575000   
H      0.105882095000     0.087330430000     0.027653460000   
H      0.013623850000     0.313452800000     0.002446200000   
H      0.065382435000     0.306831900000     0.061287815000   
H      0.044197100000     0.250080525000     0.070491805000   
H      0.009942690000     0.290990620000     0.079408625000   
H      0.007320130000     0.095848540000     0.057149540000   
H      0.477217450000     0.124718620000     0.112549340000   
H      0.496470550000     0.179114075000     0.091488095000   
H      0.036480695000     0.144094000000     0.114385635000   
H      0.445576670000     0.143566040000     0.496137170000   
C      0.274221700000     0.469266300000     0.472365000000   
C      0.210292200000     0.415168050000     0.455545930000   
C      0.321002800000     0.478963525000     0.481084975000   
C      0.346487700000     0.446393950000     0.495745570000   
C      0.258934650000     0.275593350000     0.032257940000   
C      0.282825470000     0.319749400000     0.024976200000   
C      0.232865500000     0.076663675000     0.466166375000   
C      0.350457400000     0.371956080000     0.023302900000   
C      0.172992885000     0.023144485000     0.440603300000   
C      0.329248750000     0.329958150000     0.033721810000   
C      0.188735275000     0.065901160000     0.449220180000   
C      0.258575915000     0.351526450000     0.005177995000   
C      0.260802300000     0.044591725000     0.473409175000   
C      0.252311800000     0.121390940000     0.473631250000   
C      0.279454620000     0.393157630000     0.492950500000   
C      0.246120915000     0.001913010000     0.463806800000   
C      0.184283570000     0.447758200000     0.442603915000   
C      0.325768175000     0.403814820000     0.003714835000   
C      0.201046900000     0.490934500000     0.448557850000   
C      0.254511650000     0.425316400000     0.473306550000   
C      0.246731175000     0.207328230000     0.424848900000   
C      0.262834280000     0.190899350000     0.085499145000   
C      0.293115525000     0.187240550000     0.239612030000   
C      0.216449930000     0.210987015000     0.270735980000   
C      0.218516635000     0.208878485000     0.227183015000   
C      0.291048800000     0.189349070000     0.283165065000   
C      0.256847320000     0.197007450000     0.211665885000   
C      0.252717600000     0.201220675000     0.298693350000   
C      0.258970530000     0.194841300000     0.166922435000   
C      0.250594950000     0.203386300000     0.343425650000   
C      0.248829335000     0.205187620000     0.380633235000   
C      0.260736150000     0.193039970000     0.129714785000   
C      0.328327180000     0.179326610000     0.312024920000   
C      0.181238325000     0.218900965000     0.198323100000   
C      0.177038790000     0.223185420000     0.286821785000   
C      0.332526650000     0.175042140000     0.223526225000   
C      0.105657970000     0.203628170000     0.483834685000   
C      0.435142220000     0.263662130000     0.005384895000   
C      0.080779930000     0.140079215000     0.026775135000   
C      0.478367700000     0.250982600000     0.008950600000   
C      0.038793655000     0.154095635000     0.029262815000   
C      0.483258130000     0.207200440000     0.005062995000   
C      0.028918555000     0.192625360000     0.005812465000   
C      0.034828795000     0.282465665000     0.059058265000   
C      0.004226290000     0.145202800000     0.095399460000   
C      0.443830250000     0.177333160000     0.000125295000   
C      0.063144525000     0.216943370000     0.482597380000   
C      0.401503200000     0.190743670000     0.000168030000   
N      0.358031650000     0.171329470000     0.335051800000   
N      0.151533825000     0.226898135000     0.175296215000   
N      0.145631600000     0.232919780000     0.299677350000   
N      0.363933900000     0.165307835000     0.210670725000   
N      0.397365950000     0.233318900000     0.002720560000   
N      0.114222450000     0.165794030000     0.005731555000   
N      0.016714180000     0.282552450000     0.015840070000   
N      0.006487560000     0.128925400000     0.054903375000   
O      0.216318620000     0.268927575000     0.019508055000   
O      0.294211120000     0.128136875000     0.488680480000   
O      0.281771125000     0.244248925000     0.046834735000   
O      0.228758700000     0.152815580000     0.461353850000   
O      0.259089800000     0.176913815000     0.450618625000   
O      0.250475675000     0.221313750000     0.059729430000   
O      0.232510475000     0.239642335000     0.438319625000   
O      0.277054965000     0.158585220000     0.072028450000   
O      0.431987400000     0.307213515000     0.004506040000   
O      0.087038690000     0.099847000000     0.045694805000   
F      0.354141800000     0.299758880000     0.052391290000   
F      0.160641520000     0.096282245000     0.441390050000   
Zn     0.222934975000     0.157026770000     0.514593295000   
Zn     0.287537575000     0.240387215000     0.994445800000   
H      0.150278330000     0.438906430000     0.929816575000   
H      0.222770700000     0.343722100000     0.500683655000   
H      0.293780300000     0.053081990000     0.988144935000   
H      0.386050520000     0.379712900000     0.531041405000   
H      0.138640600000     0.015061080000     0.928428800000   
H      0.195292710000     0.382235465000     0.950750350000   
H      0.338804930000     0.011449515000     0.976137950000   
H      0.382125675000     0.454937100000     0.502731840000   
H      0.057128190000     0.246225385000     0.963357950000   
H      0.371869980000     0.166937815000     0.997479700000   
H      0.131662430000     0.223368000000     0.966578750000   
H      0.406296050000     0.312614770000     0.984737575000   
H      0.105882095000     0.087330430000     0.527653460000   
H      0.013623850000     0.313452800000     0.502446200000   
H      0.065382435000     0.306831900000     0.561287815000   
H      0.044197100000     0.250080525000     0.570491805000   
H      0.009942690000     0.290990620000     0.579408625000   
H      0.007320130000     0.095848540000     0.557149540000   
H      0.477217450000     0.124718620000     0.612549340000   
H      0.496470550000     0.179114075000     0.591488095000   
H      0.036480695000     0.144094000000     0.614385635000   
H      0.445576670000     0.143566040000     0.996137170000   
C      0.274221700000     0.469266300000     0.972365000000   
C      0.210292200000     0.415168050000     0.955545930000   
C      0.321002800000     0.478963525000     0.981084975000   
C      0.346487700000     0.446393950000     0.995745570000   
C      0.258934650000     0.275593350000     0.532257940000   
C      0.282825470000     0.319749400000     0.524976200000   
C      0.232865500000     0.076663675000     0.966166375000   
C      0.350457400000     0.371956080000     0.523302900000   
C      0.172992885000     0.023144485000     0.940603300000   
C      0.329248750000     0.329958150000     0.533721810000   
C      0.188735275000     0.065901160000     0.949220180000   
C      0.258575915000     0.351526450000     0.505177995000   
C      0.260802300000     0.044591725000     0.973409175000   
C      0.252311800000     0.121390940000     0.973631250000   
C      0.279454620000     0.393157630000     0.992950500000   
C      0.246120915000     0.001913010000     0.963806800000   
C      0.184283570000     0.447758200000     0.942603915000   
C      0.325768175000     0.403814820000     0.503714835000   
C      0.201046900000     0.490934500000     0.948557850000   
C      0.254511650000     0.425316400000     0.973306550000   
C      0.246731175000     0.207328230000     0.924848900000   
C      0.262834280000     0.190899350000     0.585499145000   
C      0.293115525000     0.187240550000     0.739612030000   
C      0.216449930000     0.210987015000     0.770735980000   
C      0.218516635000     0.208878485000     0.727183015000   
C      0.291048800000     0.189349070000     0.783165065000   
C      0.256847320000     0.197007450000     0.711665885000   
C      0.252717600000     0.201220675000     0.798693350000   
C      0.258970530000     0.194841300000     0.666922435000   
C      0.250594950000     0.203386300000     0.843425650000   
C      0.248829335000     0.205187620000     0.880633235000   
C      0.260736150000     0.193039970000     0.629714785000   
C      0.328327180000     0.179326610000     0.812024920000   
C      0.181238325000     0.218900965000     0.698323100000   
C      0.177038790000     0.223185420000     0.786821785000   
C      0.332526650000     0.175042140000     0.723526225000   
C      0.105657970000     0.203628170000     0.983834685000   
C      0.435142220000     0.263662130000     0.505384895000   
C      0.080779930000     0.140079215000     0.526775135000   
C      0.478367700000     0.250982600000     0.508950600000   
C      0.038793655000     0.154095635000     0.529262815000   
C      0.483258130000     0.207200440000     0.505062995000   
C      0.028918555000     0.192625360000     0.505812465000   
C      0.034828795000     0.282465665000     0.559058265000   
C      0.004226290000     0.145202800000     0.595399460000   
C      0.443830250000     0.177333160000     0.500125295000   
C      0.063144525000     0.216943370000     0.982597380000   
C      0.401503200000     0.190743670000     0.500168030000   
N      0.358031650000     0.171329470000     0.835051800000   
N      0.151533825000     0.226898135000     0.675296215000   
N      0.145631600000     0.232919780000     0.799677350000   
N      0.363933900000     0.165307835000     0.710670725000   
N      0.397365950000     0.233318900000     0.502720560000   
N      0.114222450000     0.165794030000     0.505731555000   
N      0.016714180000     0.282552450000     0.515840070000   
N      0.006487560000     0.128925400000     0.554903375000   
O      0.216318620000     0.268927575000     0.519508055000   
O      0.294211120000     0.128136875000     0.988680480000   
O      0.281771125000     0.244248925000     0.546834735000   
O      0.228758700000     0.152815580000     0.961353850000   
O      0.259089800000     0.176913815000     0.950618625000   
O      0.250475675000     0.221313750000     0.559729430000   
O      0.232510475000     0.239642335000     0.938319625000   
O      0.277054965000     0.158585220000     0.572028450000   
O      0.431987400000     0.307213515000     0.504506040000   
O      0.087038690000     0.099847000000     0.545694805000   
F      0.354141800000     0.299758880000     0.552391290000   
F      0.160641520000     0.096282245000     0.941390050000   
Zn     0.222934975000     0.657026770000     0.014593295000   
Zn     0.287537575000     0.740387215000     0.494445800000   
H      0.150278330000     0.938906430000     0.429816575000   
H      0.222770700000     0.843722100000     0.000683655000   
H      0.293780300000     0.553081990000     0.488144935000   
H      0.386050520000     0.879712900000     0.031041405000   
H      0.138640600000     0.515061080000     0.428428800000   
H      0.195292710000     0.882235465000     0.450750350000   
H      0.338804930000     0.511449515000     0.476137950000   
H      0.382125675000     0.954937100000     0.002731840000   
H      0.057128190000     0.746225385000     0.463357950000   
H      0.371869980000     0.666937815000     0.497479700000   
H      0.131662430000     0.723368000000     0.466578750000   
H      0.406296050000     0.812614770000     0.484737575000   
H      0.105882095000     0.587330430000     0.027653460000   
H      0.013623850000     0.813452800000     0.002446200000   
H      0.065382435000     0.806831900000     0.061287815000   
H      0.044197100000     0.750080525000     0.070491805000   
H      0.009942690000     0.790990620000     0.079408625000   
H      0.007320130000     0.595848540000     0.057149540000   
H      0.477217450000     0.624718620000     0.112549340000   
H      0.496470550000     0.679114075000     0.091488095000   
H      0.036480695000     0.644094000000     0.114385635000   
H      0.445576670000     0.643566040000     0.496137170000   
C      0.274221700000     0.969266300000     0.472365000000   
C      0.210292200000     0.915168050000     0.455545930000   
C      0.321002800000     0.978963525000     0.481084975000   
C      0.346487700000     0.946393950000     0.495745570000   
C      0.258934650000     0.775593350000     0.032257940000   
C      0.282825470000     0.819749400000     0.024976200000   
C      0.232865500000     0.576663675000     0.466166375000   
C      0.350457400000     0.871956080000     0.023302900000   
C      0.172992885000     0.523144485000     0.440603300000   
C      0.329248750000     0.829958150000     0.033721810000   
C      0.188735275000     0.565901160000     0.449220180000   
C      0.258575915000     0.851526450000     0.005177995000   
C      0.260802300000     0.544591725000     0.473409175000   
C      0.252311800000     0.621390940000     0.473631250000   
C      0.279454620000     0.893157630000     0.492950500000   
C      0.246120915000     0.501913010000     0.463806800000   
C      0.184283570000     0.947758200000     0.442603915000   
C      0.325768175000     0.903814820000     0.003714835000   
C      0.201046900000     0.990934500000     0.448557850000   
C      0.254511650000     0.925316400000     0.473306550000   
C      0.246731175000     0.707328230000     0.424848900000   
C      0.262834280000     0.690899350000     0.085499145000   
C      0.293115525000     0.687240550000     0.239612030000   
C      0.216449930000     0.710987015000     0.270735980000   
C      0.218516635000     0.708878485000     0.227183015000   
C      0.291048800000     0.689349070000     0.283165065000   
C      0.256847320000     0.697007450000     0.211665885000   
C      0.252717600000     0.701220675000     0.298693350000   
C      0.258970530000     0.694841300000     0.166922435000   
C      0.250594950000     0.703386300000     0.343425650000   
C      0.248829335000     0.705187620000     0.380633235000   
C      0.260736150000     0.693039970000     0.129714785000   
C      0.328327180000     0.679326610000     0.312024920000   
C      0.181238325000     0.718900965000     0.198323100000   
C      0.177038790000     0.723185420000     0.286821785000   
C      0.332526650000     0.675042140000     0.223526225000   
C      0.105657970000     0.703628170000     0.483834685000   
C      0.435142220000     0.763662130000     0.005384895000   
C      0.080779930000     0.640079215000     0.026775135000   
C      0.478367700000     0.750982600000     0.008950600000   
C      0.038793655000     0.654095635000     0.029262815000   
C      0.483258130000     0.707200440000     0.005062995000   
C      0.028918555000     0.692625360000     0.005812465000   
C      0.034828795000     0.782465665000     0.059058265000   
C      0.004226290000     0.645202800000     0.095399460000   
C      0.443830250000     0.677333160000     0.000125295000   
C      0.063144525000     0.716943370000     0.482597380000   
C      0.401503200000     0.690743670000     0.000168030000   
N      0.358031650000     0.671329470000     0.335051800000   
N      0.151533825000     0.726898135000     0.175296215000   
N      0.145631600000     0.732919780000     0.299677350000   
N      0.363933900000     0.665307835000     0.210670725000   
N      0.397365950000     0.733318900000     0.002720560000   
N      0.114222450000     0.665794030000     0.005731555000   
N      0.016714180000     0.782552450000     0.015840070000   
N      0.006487560000     0.628925400000     0.054903375000   
O      0.216318620000     0.768927575000     0.019508055000   
O      0.294211120000     0.628136875000     0.488680480000   
O      0.281771125000     0.744248925000     0.046834735000   
O      0.228758700000     0.652815580000     0.461353850000   
O      0.259089800000     0.676913815000     0.450618625000   
O      0.250475675000     0.721313750000     0.059729430000   
O      0.232510475000     0.739642335000     0.438319625000   
O      0.277054965000     0.658585220000     0.072028450000   
O      0.431987400000     0.807213515000     0.004506040000   
O      0.087038690000     0.599847000000     0.045694805000   
F      0.354141800000     0.799758880000     0.052391290000   
F      0.160641520000     0.596282245000     0.441390050000   
Zn     0.222934975000     0.657026770000     0.514593295000   
Zn     0.287537575000     0.740387215000     0.994445800000   
H      0.150278330000     0.938906430000     0.929816575000   
H      0.222770700000     0.843722100000     0.500683655000   
H      0.293780300000     0.553081990000     0.988144935000   
H      0.386050520000     0.879712900000     0.531041405000   
H      0.138640600000     0.515061080000     0.928428800000   
H      0.195292710000     0.882235465000     0.950750350000   
H      0.338804930000     0.511449515000     0.976137950000   
H      0.382125675000     0.954937100000     0.502731840000   
H      0.057128190000     0.746225385000     0.963357950000   
H      0.371869980000     0.666937815000     0.997479700000   
H      0.131662430000     0.723368000000     0.966578750000   
H      0.406296050000     0.812614770000     0.984737575000   
H      0.105882095000     0.587330430000     0.527653460000   
H      0.013623850000     0.813452800000     0.502446200000   
H      0.065382435000     0.806831900000     0.561287815000   
H      0.044197100000     0.750080525000     0.570491805000   
H      0.009942690000     0.790990620000     0.579408625000   
H      0.007320130000     0.595848540000     0.557149540000   
H      0.477217450000     0.624718620000     0.612549340000   
H      0.496470550000     0.679114075000     0.591488095000   
H      0.036480695000     0.644094000000     0.614385635000   
H      0.445576670000     0.643566040000     0.996137170000   
C      0.274221700000     0.969266300000     0.972365000000   
C      0.210292200000     0.915168050000     0.955545930000   
C      0.321002800000     0.978963525000     0.981084975000   
C      0.346487700000     0.946393950000     0.995745570000   
C      0.258934650000     0.775593350000     0.532257940000   
C      0.282825470000     0.819749400000     0.524976200000   
C      0.232865500000     0.576663675000     0.966166375000   
C      0.350457400000     0.871956080000     0.523302900000   
C      0.172992885000     0.523144485000     0.940603300000   
C      0.329248750000     0.829958150000     0.533721810000   
C      0.188735275000     0.565901160000     0.949220180000   
C      0.258575915000     0.851526450000     0.505177995000   
C      0.260802300000     0.544591725000     0.973409175000   
C      0.252311800000     0.621390940000     0.973631250000   
C      0.279454620000     0.893157630000     0.992950500000   
C      0.246120915000     0.501913010000     0.963806800000   
C      0.184283570000     0.947758200000     0.942603915000   
C      0.325768175000     0.903814820000     0.503714835000   
C      0.201046900000     0.990934500000     0.948557850000   
C      0.254511650000     0.925316400000     0.973306550000   
C      0.246731175000     0.707328230000     0.924848900000   
C      0.262834280000     0.690899350000     0.585499145000   
C      0.293115525000     0.687240550000     0.739612030000   
C      0.216449930000     0.710987015000     0.770735980000   
C      0.218516635000     0.708878485000     0.727183015000   
C      0.291048800000     0.689349070000     0.783165065000   
C      0.256847320000     0.697007450000     0.711665885000   
C      0.252717600000     0.701220675000     0.798693350000   
C      0.258970530000     0.694841300000     0.666922435000   
C      0.250594950000     0.703386300000     0.843425650000   
C      0.248829335000     0.705187620000     0.880633235000   
C      0.260736150000     0.693039970000     0.629714785000   
C      0.328327180000     0.679326610000     0.812024920000   
C      0.181238325000     0.718900965000     0.698323100000   
C      0.177038790000     0.723185420000     0.786821785000   
C      0.332526650000     0.675042140000     0.723526225000   
C      0.105657970000     0.703628170000     0.983834685000   
C      0.435142220000     0.763662130000     0.505384895000   
C      0.080779930000     0.640079215000     0.526775135000   
C      0.478367700000     0.750982600000     0.508950600000   
C      0.038793655000     0.654095635000     0.529262815000   
C      0.483258130000     0.707200440000     0.505062995000   
C      0.028918555000     0.692625360000     0.505812465000   
C      0.034828795000     0.782465665000     0.559058265000   
C      0.004226290000     0.645202800000     0.595399460000   
C      0.443830250000     0.677333160000     0.500125295000   
C      0.063144525000     0.716943370000     0.982597380000   
C      0.401503200000     0.690743670000     0.500168030000   
N      0.358031650000     0.671329470000     0.835051800000   
N      0.151533825000     0.726898135000     0.675296215000   
N      0.145631600000     0.732919780000     0.799677350000   
N      0.363933900000     0.665307835000     0.710670725000   
N      0.397365950000     0.733318900000     0.502720560000   
N      0.114222450000     0.665794030000     0.505731555000   
N      0.016714180000     0.782552450000     0.515840070000   
N      0.006487560000     0.628925400000     0.554903375000   
O      0.216318620000     0.768927575000     0.519508055000   
O      0.294211120000     0.628136875000     0.988680480000   
O      0.281771125000     0.744248925000     0.546834735000   
O      0.228758700000     0.652815580000     0.961353850000   
O      0.259089800000     0.676913815000     0.950618625000   
O      0.250475675000     0.721313750000     0.559729430000   
O      0.232510475000     0.739642335000     0.938319625000   
O      0.277054965000     0.658585220000     0.572028450000   
O      0.431987400000     0.807213515000     0.504506040000   
O      0.087038690000     0.599847000000     0.545694805000   
F      0.354141800000     0.799758880000     0.552391290000   
F      0.160641520000     0.596282245000     0.941390050000   
Zn     0.722934975000     0.157026770000     0.014593295000   
Zn     0.787537575000     0.240387215000     0.494445800000   
H      0.650278330000     0.438906430000     0.429816575000   
H      0.722770700000     0.343722100000     0.000683655000   
H      0.793780300000     0.053081990000     0.488144935000   
H      0.886050520000     0.379712900000     0.031041405000   
H      0.638640600000     0.015061080000     0.428428800000   
H      0.695292710000     0.382235465000     0.450750350000   
H      0.838804930000     0.011449515000     0.476137950000   
H      0.882125675000     0.454937100000     0.002731840000   
H      0.557128190000     0.246225385000     0.463357950000   
H      0.871869980000     0.166937815000     0.497479700000   
H      0.631662430000     0.223368000000     0.466578750000   
H      0.906296050000     0.312614770000     0.484737575000   
H      0.605882095000     0.087330430000     0.027653460000   
H      0.513623850000     0.313452800000     0.002446200000   
H      0.565382435000     0.306831900000     0.061287815000   
H      0.544197100000     0.250080525000     0.070491805000   
H      0.509942690000     0.290990620000     0.079408625000   
H      0.507320130000     0.095848540000     0.057149540000   
H      0.977217450000     0.124718620000     0.112549340000   
H      0.996470550000     0.179114075000     0.091488095000   
H      0.536480695000     0.144094000000     0.114385635000   
H      0.945576670000     0.143566040000     0.496137170000   
C      0.774221700000     0.469266300000     0.472365000000   
C      0.710292200000     0.415168050000     0.455545930000   
C      0.821002800000     0.478963525000     0.481084975000   
C      0.846487700000     0.446393950000     0.495745570000   
C      0.758934650000     0.275593350000     0.032257940000   
C      0.782825470000     0.319749400000     0.024976200000   
C      0.732865500000     0.076663675000     0.466166375000   
C      0.850457400000     0.371956080000     0.023302900000   
C      0.672992885000     0.023144485000     0.440603300000   
C      0.829248750000     0.329958150000     0.033721810000   
C      0.688735275000     0.065901160000     0.449220180000   
C      0.758575915000     0.351526450000     0.005177995000   
C      0.760802300000     0.044591725000     0.473409175000   
C      0.752311800000     0.121390940000     0.473631250000   
C      0.779454620000     0.393157630000     0.492950500000   
C      0.746120915000     0.001913010000     0.463806800000   
C      0.684283570000     0.447758200000     0.442603915000   
C      0.825768175000     0.403814820000     0.003714835000   
C      0.701046900000     0.490934500000     0.448557850000   
C      0.754511650000     0.425316400000     0.473306550000   
C      0.746731175000     0.207328230000     0.424848900000   
C      0.762834280000     0.190899350000     0.085499145000   
C      0.793115525000     0.187240550000     0.239612030000   
C      0.716449930000     0.210987015000     0.270735980000   
C      0.718516635000     0.208878485000     0.227183015000   
C      0.791048800000     0.189349070000     0.283165065000   
C      0.756847320000     0.197007450000     0.211665885000   
C      0.752717600000     0.201220675000     0.298693350000   
C      0.758970530000     0.194841300000     0.166922435000   
C      0.750594950000     0.203386300000     0.343425650000   
C      0.748829335000     0.205187620000     0.380633235000   
C      0.760736150000     0.193039970000     0.129714785000   
C      0.828327180000     0.179326610000     0.312024920000   
C      0.681238325000     0.218900965000     0.198323100000   
C      0.677038790000     0.223185420000     0.286821785000   
C      0.832526650000     0.175042140000     0.223526225000   
C      0.605657970000     0.203628170000     0.483834685000   
C      0.935142220000     0.263662130000     0.005384895000   
C      0.580779930000     0.140079215000     0.026775135000   
C      0.978367700000     0.250982600000     0.008950600000   
C      0.538793655000     0.154095635000     0.029262815000   
C      0.983258130000     0.207200440000     0.005062995000   
C      0.528918555000     0.192625360000     0.005812465000   
C      0.534828795000     0.282465665000     0.059058265000   
C      0.504226290000     0.145202800000     0.095399460000   
C      0.943830250000     0.177333160000     0.000125295000   
C      0.563144525000     0.216943370000     0.482597380000   
C      0.901503200000     0.190743670000     0.000168030000   
N      0.858031650000     0.171329470000     0.335051800000   
N      0.651533825000     0.226898135000     0.175296215000   
N      0.645631600000     0.232919780000     0.299677350000   
N      0.863933900000     0.165307835000     0.210670725000   
N      0.897365950000     0.233318900000     0.002720560000   
N      0.614222450000     0.165794030000     0.005731555000   
N      0.516714180000     0.282552450000     0.015840070000   
N      0.506487560000     0.128925400000     0.054903375000   
O      0.716318620000     0.268927575000     0.019508055000   
O      0.794211120000     0.128136875000     0.488680480000   
O      0.781771125000     0.244248925000     0.046834735000   
O      0.728758700000     0.152815580000     0.461353850000   
O      0.759089800000     0.176913815000     0.450618625000   
O      0.750475675000     0.221313750000     0.059729430000   
O      0.732510475000     0.239642335000     0.438319625000   
O      0.777054965000     0.158585220000     0.072028450000   
O      0.931987400000     0.307213515000     0.004506040000   
O      0.587038690000     0.099847000000     0.045694805000   
F      0.854141800000     0.299758880000     0.052391290000   
F      0.660641520000     0.096282245000     0.441390050000   
Zn     0.722934975000     0.157026770000     0.514593295000   
Zn     0.787537575000     0.240387215000     0.994445800000   
H      0.650278330000     0.438906430000     0.929816575000   
H      0.722770700000     0.343722100000     0.500683655000   
H      0.793780300000     0.053081990000     0.988144935000   
H      0.886050520000     0.379712900000     0.531041405000   
H      0.638640600000     0.015061080000     0.928428800000   
H      0.695292710000     0.382235465000     0.950750350000   
H      0.838804930000     0.011449515000     0.976137950000   
H      0.882125675000     0.454937100000     0.502731840000   
H      0.557128190000     0.246225385000     0.963357950000   
H      0.871869980000     0.166937815000     0.997479700000   