%BLOCK LATTICE_CART
ang    # angstrom units
  12.775080000000    0.000000000000     0.000000000000   
 -4.771474988582     21.293242123344    0.000000000000   
 -1.200670153412    -1.402379469837     21.840532463786  
%ENDBLOCK LATTICE_CART

%BLOCK POSITIONS_FRAC
Zn     0.443581400000     0.002118765000     0.059180165000   
Zn     0.324053525000     0.486179380000     0.059570915000   
Zn     0.381984620000     0.219335510000     0.330559225000   
Zn     0.381598475000     0.270317000000     0.287844100000   
H      0.037715385000     0.263293415000     0.254638250000   
H      0.226669150000     0.224189950000     0.363916700000   
H      0.138024225000     0.230520950000     0.370996900000   
H      0.126139775000     0.256850850000     0.247333870000   
H      0.093975580000     0.310673835000     0.361741065000   
H      0.023395350000     0.301453750000     0.349146400000   
H      0.043480900000     0.300695900000     0.388949950000   
H      0.016097890000     0.245892375000     0.364435970000   
H      0.082736050000     0.256625625000     0.380155535000   
H      0.243123000000     0.187659325000     0.269414450000   
H      0.173216750000     0.178168120000     0.255423000000   
H      0.225488275000     0.189292820000     0.229423585000   
H      0.183755680000     0.232513150000     0.238402830000   
H      0.249908180000     0.243562340000     0.254617650000   
H      0.310798300000     0.350183200000     0.468959700000   
H      0.452591150000     0.388871970000     0.398369750000   
H      0.320551700000     0.290585250000     0.458840550000   
H      0.368278000000     0.288597700000     0.429883650000   
H      0.248089180000     0.255854280000     0.423965550000   
H      0.296056450000     0.254296650000     0.395560115000   
H      0.350643725000     0.229759600000     0.432960800000   
H      0.283015220000     0.206718300000     0.425152300000   
H      0.300813950000     0.230509535000     0.460644300000   
H      0.454152500000     0.472462475000     0.457463500000   
H      0.389930500000     0.448850425000     0.444465725000   
H      0.488297250000     0.466083170000     0.405237600000   
H      0.422787575000     0.443227200000     0.391697315000   
H      0.382147550000     0.489106900000     0.404946000000   
H      0.434070150000     0.498810600000     0.378483685000   
H      0.448052000000     0.012151300000     0.418332430000   
H      0.297350825000     0.369151300000     0.154730575000   
H      0.468858480000     0.368550150000     0.213525785000   
H      0.468646750000     0.403498700000     0.171130800000   
H      0.297562550000     0.334202800000     0.197125600000   
H      0.414627950000     0.071129470000     0.197511600000   
H      0.352018950000     0.167207120000     0.171804710000   
H      0.382527250000     0.071933420000     0.251097230000   
H      0.355924300000     0.106080950000     0.261819450000   
H      0.427429600000     0.121907665000     0.303591430000   
H      0.389416070000     0.082261630000     0.307089625000   
H      0.455587550000     0.088628135000     0.292726665000   
H      0.410748275000     0.132281540000     0.107508480000   
H      0.384103050000     0.166413200000     0.118227125000   
H      0.311056550000     0.149698700000     0.076588840000   
H      0.377239525000     0.156107770000     0.062239835000   
H      0.339279000000     0.116444530000     0.065721205000   
H      0.112126240000     0.049702465000     0.133716730000   
H      0.096088370000     0.483969450000     0.016920860000   
H      0.076258150000     0.438786270000     0.478056520000   
H      0.039745230000     0.431463900000     0.424291730000   
H      0.091751750000     0.459236475000     0.383892300000   
H      0.180791870000     0.494663400000     0.397438200000   
H      0.217786450000     0.002797125000     0.451116850000   
H      0.285800250000     0.486197620000     0.048861430000   
H      0.057723935000     0.455227525000     0.061591010000   
H      0.492379350000     0.468914180000     0.095208450000   
H      0.226621600000     0.497733700000     0.086216235000   
H      0.176394730000     0.036406695000     0.099604845000   
H      0.470146700000     0.103223490000     0.439986550000   
H      0.296280750000     0.135483025000     0.428236750000   
H      0.296965720000     0.080475270000     0.436410350000   
H      0.469461620000     0.158231260000     0.431812970000   
C      0.279146050000     0.233894275000     0.314071600000   
C      0.486111520000     0.254501550000     0.304867270000   
C      0.042376595000     0.256846280000     0.303066150000   
C      0.222753240000     0.231367850000     0.315614820000   
C      0.152239100000     0.234122770000     0.348514650000   
C      0.112381080000     0.253561170000     0.269939800000   
C      0.202487635000     0.228890910000     0.344324230000   
C      0.062172210000     0.258838450000     0.274221100000   
C      0.191178550000     0.235203085000     0.289466085000   
C      0.074153490000     0.253119350000     0.329136150000   
C      0.142106890000     0.243977150000     0.294156450000   
C      0.122887425000     0.244020700000     0.324348800000   
C      0.056120815000     0.260798065000     0.360950975000   
C      0.054075225000     0.295514750000     0.365294950000   
C      0.210074100000     0.228247360000     0.257688015000   
C      0.213189990000     0.193738385000     0.252862720000   
C      0.341882080000     0.358824430000     0.453691050000   
C      0.421287775000     0.380372550000     0.413553550000   
C      0.378256915000     0.387782350000     0.461239575000   
C      0.384928550000     0.351437270000     0.406021475000   
C      0.417696300000     0.398800435000     0.440513250000   
C      0.345232665000     0.340595635000     0.426506050000   
C      0.374914300000     0.406092750000     0.489993100000   
C      0.388839630000     0.332764120000     0.377609400000   
C      0.325335115000     0.288298000000     0.433782100000   
C      0.291152350000     0.256719320000     0.420555980000   
C      0.307560600000     0.229275165000     0.435837550000   
C      0.433812500000     0.452658550000     0.441045880000   
C      0.444561550000     0.462311685000     0.408469200000   
C      0.425989700000     0.492488150000     0.402260870000   
C      0.382753600000     0.425882815000     0.114951715000   
C      0.383442650000     0.311830225000     0.253304800000   
C      0.334916175000     0.349244550000     0.191553085000   
C      0.431293050000     0.388462125000     0.176697165000   
C      0.431410450000     0.368593700000     0.200797930000   
C      0.334798725000     0.369112900000     0.167452335000   
C      0.383226150000     0.349108350000     0.208077670000   
C      0.382983120000     0.388598200000     0.160172490000   
C      0.383599650000     0.291718850000     0.277722500000   
C      0.382593450000     0.446002650000     0.090541235000   
C      0.383334900000     0.328864700000     0.232639300000   
C      0.382872800000     0.408846150000     0.135614500000   
C      0.400581550000     0.091945840000     0.191758065000   
C      0.366064520000     0.146388560000     0.177560150000   
C      0.377347050000     0.093430000000     0.162160935000   
C      0.389299035000     0.144904390000     0.207157270000   
C      0.360632650000     0.121163325000     0.155048000000   
C      0.406020550000     0.117173515000     0.214268715000   
C      0.371348000000     0.066753315000     0.139130130000   
C      0.395297470000     0.171578400000     0.230185775000   
C      0.393189750000     0.096818210000     0.260622450000   
C      0.418028050000     0.097475700000     0.293052375000   
C      0.373467500000     0.141533690000     0.108699680000   
C      0.348640680000     0.140871315000     0.076265910000   
C      0.225058250000     0.476749780000     0.010540100000   
C      0.244834750000     0.486121950000     0.040963170000   
C      0.210991450000     0.492487430000     0.062599840000   
C      0.156928650000     0.490283100000     0.054193765000   
C      0.137504400000     0.483663550000     0.023463435000   
C      0.171306500000     0.476952300000     0.001180040000   
C      0.069812805000     0.475663750000     0.077562585000   
C      0.032925130000     0.483247100000     0.097001375000   
C      0.100123755000     0.028506935000     0.118732540000   
C      0.136823750000     0.021016835000     0.099182050000   
C      0.120937490000     0.495448085000     0.077564440000   
C      0.047041735000     0.010765495000     0.116399190000   
C      0.258688600000     0.461226250000     0.492032825000   
C      0.005011765000     0.024390400000     0.128877310000   
C      0.150058000000     0.471179875000     0.468658565000   
C      0.099508070000     0.451146425000     0.460708550000   
C      0.078705000000     0.446854385000     0.430235150000   
C      0.108031185000     0.462490700000     0.407449870000   
C      0.158237370000     0.482443480000     0.415088900000   
C      0.179198475000     0.486842200000     0.445533450000   
C      0.382056450000     0.242221130000     0.415790080000   
C      0.384377700000     0.496481330000     0.452429620000   
C      0.431668400000     0.141377135000     0.432720480000   
C      0.334758965000     0.097329385000     0.435502770000   
C      0.334385065000     0.128633850000     0.430852450000   
C      0.432047750000     0.110077990000     0.437373130000   
C      0.382852075000     0.150788025000     0.429433550000   
C      0.383575250000     0.087918515000     0.438789725000   
C      0.382527000000     0.183100090000     0.424610050000   
C      0.383900400000     0.055606400000     0.443613230000   
C      0.384077700000     0.028618315000     0.447637300000   
C      0.382349730000     0.210088200000     0.420586000000   
N      0.391760850000     0.317817270000     0.355098275000   
N      0.372383535000     0.420848725000     0.012687685000   
N      0.400120450000     0.192670300000     0.248518765000   
N      0.366525620000     0.045664090000     0.120799460000   
O      0.306717150000     0.258304415000     0.302470900000   
O      0.458564700000     0.230128950000     0.316532550000   
O      0.300204425000     0.212625050000     0.325646250000   
O      0.465077500000     0.275808335000     0.293357150000   
O      0.307829915000     0.312771950000     0.419244020000   
O      0.455909135000     0.426424100000     0.447424250000   
O      0.428424000000     0.291860370000     0.292756200000   
O      0.337769250000     0.445861100000     0.075507550000   
O      0.338956980000     0.273852550000     0.284215300000   
O      0.427236200000     0.463868900000     0.084048430000   
O      0.430654170000     0.115427190000     0.242798970000   
O      0.336006200000     0.122912035000     0.126516240000   
O      0.018577395000     0.050959290000     0.143933250000   
O      0.456630320000     0.012391805000     0.119620455000   
O      0.308507250000     0.467511250000     0.000176800000   
O      0.236848650000     0.437304400000     0.474269050000   
O      0.426328400000     0.261977375000     0.413027300000   
O      0.340098950000     0.476729125000     0.455196000000   
O      0.337434050000     0.250907250000     0.414318920000   
O      0.428993200000     0.487799300000     0.453904400000   
Zn     0.443581400000     0.002118765000     0.559180165000   
Zn     0.324053525000     0.486179380000     0.559570915000   
Zn     0.381984620000     0.219335510000     0.830559225000   
Zn     0.381598475000     0.270317000000     0.787844100000   
H      0.037715385000     0.263293415000     0.754638250000   
H      0.226669150000     0.224189950000     0.863916700000   
H      0.138024225000     0.230520950000     0.870996900000   
H      0.126139775000     0.256850850000     0.747333870000   
H      0.093975580000     0.310673835000     0.861741065000   
H      0.023395350000     0.301453750000     0.849146400000   
H      0.043480900000     0.300695900000     0.888949950000   
H      0.016097890000     0.245892375000     0.864435970000   
H      0.082736050000     0.256625625000     0.880155535000   
H      0.243123000000     0.187659325000     0.769414450000   
H      0.173216750000     0.178168120000     0.755423000000   
H      0.225488275000     0.189292820000     0.729423585000   
H      0.183755680000     0.232513150000     0.738402830000   
H      0.249908180000     0.243562340000     0.754617650000   
H      0.310798300000     0.350183200000     0.968959700000   
H      0.452591150000     0.388871970000     0.898369750000   
H      0.320551700000     0.290585250000     0.958840550000   
H      0.368278000000     0.288597700000     0.929883650000   
H      0.248089180000     0.255854280000     0.923965550000   
H      0.296056450000     0.254296650000     0.895560115000   
H      0.350643725000     0.229759600000     0.932960800000   
H      0.283015220000     0.206718300000     0.925152300000   
H      0.300813950000     0.230509535000     0.960644300000   
H      0.454152500000     0.472462475000     0.957463500000   
H      0.389930500000     0.448850425000     0.944465725000   
H      0.488297250000     0.466083170000     0.905237600000   
H      0.422787575000     0.443227200000     0.891697315000   
H      0.382147550000     0.489106900000     0.904946000000   
H      0.434070150000     0.498810600000     0.878483685000   
H      0.448052000000     0.012151300000     0.918332430000   
H      0.297350825000     0.369151300000     0.654730575000   
H      0.468858480000     0.368550150000     0.713525785000   
H      0.468646750000     0.403498700000     0.671130800000   
H      0.297562550000     0.334202800000     0.697125600000   
H      0.414627950000     0.071129470000     0.697511600000   
H      0.352018950000     0.167207120000     0.671804710000   
H      0.382527250000     0.071933420000     0.751097230000   
H      0.355924300000     0.106080950000     0.761819450000   
H      0.427429600000     0.121907665000     0.803591430000   
H      0.389416070000     0.082261630000     0.807089625000   
H      0.455587550000     0.088628135000     0.792726665000   
H      0.410748275000     0.132281540000     0.607508480000   
H      0.384103050000     0.166413200000     0.618227125000   
H      0.311056550000     0.149698700000     0.576588840000   
H      0.377239525000     0.156107770000     0.562239835000   
H      0.339279000000     0.116444530000     0.565721205000   
H      0.112126240000     0.049702465000     0.633716730000   
H      0.096088370000     0.483969450000     0.516920860000   
H      0.076258150000     0.438786270000     0.978056520000   
H      0.039745230000     0.431463900000     0.924291730000   
H      0.091751750000     0.459236475000     0.883892300000   
H      0.180791870000     0.494663400000     0.897438200000   
H      0.217786450000     0.002797125000     0.951116850000   
H      0.285800250000     0.486197620000     0.548861430000   
H      0.057723935000     0.455227525000     0.561591010000   
H      0.492379350000     0.468914180000     0.595208450000   
H      0.226621600000     0.497733700000     0.586216235000   
H      0.176394730000     0.036406695000     0.599604845000   
H      0.470146700000     0.103223490000     0.939986550000   
H      0.296280750000     0.135483025000     0.928236750000   
H      0.296965720000     0.080475270000     0.936410350000   
H      0.469461620000     0.158231260000     0.931812970000   
C      0.279146050000     0.233894275000     0.814071600000   
C      0.486111520000     0.254501550000     0.804867270000   
C      0.042376595000     0.256846280000     0.803066150000   
C      0.222753240000     0.231367850000     0.815614820000   
C      0.152239100000     0.234122770000     0.848514650000   
C      0.112381080000     0.253561170000     0.769939800000   
C      0.202487635000     0.228890910000     0.844324230000   
C      0.062172210000     0.258838450000     0.774221100000   
C      0.191178550000     0.235203085000     0.789466085000   
C      0.074153490000     0.253119350000     0.829136150000   
C      0.142106890000     0.243977150000     0.794156450000   
C      0.122887425000     0.244020700000     0.824348800000   
C      0.056120815000     0.260798065000     0.860950975000   
C      0.054075225000     0.295514750000     0.865294950000   
C      0.210074100000     0.228247360000     0.757688015000   
C      0.213189990000     0.193738385000     0.752862720000   
C      0.341882080000     0.358824430000     0.953691050000   
C      0.421287775000     0.380372550000     0.913553550000   
C      0.378256915000     0.387782350000     0.961239575000   
C      0.384928550000     0.351437270000     0.906021475000   
C      0.417696300000     0.398800435000     0.940513250000   
C      0.345232665000     0.340595635000     0.926506050000   
C      0.374914300000     0.406092750000     0.989993100000   
C      0.388839630000     0.332764120000     0.877609400000   
C      0.325335115000     0.288298000000     0.933782100000   
C      0.291152350000     0.256719320000     0.920555980000   
C      0.307560600000     0.229275165000     0.935837550000   
C      0.433812500000     0.452658550000     0.941045880000   
C      0.444561550000     0.462311685000     0.908469200000   
C      0.425989700000     0.492488150000     0.902260870000   
C      0.382753600000     0.425882815000     0.614951715000   
C      0.383442650000     0.311830225000     0.753304800000   
C      0.334916175000     0.349244550000     0.691553085000   
C      0.431293050000     0.388462125000     0.676697165000   
C      0.431410450000     0.368593700000     0.700797930000   
C      0.334798725000     0.369112900000     0.667452335000   
C      0.383226150000     0.349108350000     0.708077670000   
C      0.382983120000     0.388598200000     0.660172490000   
C      0.383599650000     0.291718850000     0.777722500000   
C      0.382593450000     0.446002650000     0.590541235000   
C      0.383334900000     0.328864700000     0.732639300000   
C      0.382872800000     0.408846150000     0.635614500000   
C      0.400581550000     0.091945840000     0.691758065000   
C      0.366064520000     0.146388560000     0.677560150000   
C      0.377347050000     0.093430000000     0.662160935000   
C      0.389299035000     0.144904390000     0.707157270000   
C      0.360632650000     0.121163325000     0.655048000000   
C      0.406020550000     0.117173515000     0.714268715000   
C      0.371348000000     0.066753315000     0.639130130000   
C      0.395297470000     0.171578400000     0.730185775000   
C      0.393189750000     0.096818210000     0.760622450000   
C      0.418028050000     0.097475700000     0.793052375000   
C      0.373467500000     0.141533690000     0.608699680000   
C      0.348640680000     0.140871315000     0.576265910000   
C      0.225058250000     0.476749780000     0.510540100000   
C      0.244834750000     0.486121950000     0.540963170000   
C      0.210991450000     0.492487430000     0.562599840000   
C      0.156928650000     0.490283100000     0.554193765000   
C      0.137504400000     0.483663550000     0.523463435000   
C      0.171306500000     0.476952300000     0.501180040000   
C      0.069812805000     0.475663750000     0.577562585000   
C      0.032925130000     0.483247100000     0.597001375000   
C      0.100123755000     0.028506935000     0.618732540000   
C      0.136823750000     0.021016835000     0.599182050000   
C      0.120937490000     0.495448085000     0.577564440000   
C      0.047041735000     0.010765495000     0.616399190000   
C      0.258688600000     0.461226250000     0.992032825000   
C      0.005011765000     0.024390400000     0.628877310000   
C      0.150058000000     0.471179875000     0.968658565000   
C      0.099508070000     0.451146425000     0.960708550000   
C      0.078705000000     0.446854385000     0.930235150000   
C      0.108031185000     0.462490700000     0.907449870000   
C      0.158237370000     0.482443480000     0.915088900000   
C      0.179198475000     0.486842200000     0.945533450000   
C      0.382056450000     0.242221130000     0.915790080000   
C      0.384377700000     0.496481330000     0.952429620000   
C      0.431668400000     0.141377135000     0.932720480000   
C      0.334758965000     0.097329385000     0.935502770000   
C      0.334385065000     0.128633850000     0.930852450000   
C      0.432047750000     0.110077990000     0.937373130000   
C      0.382852075000     0.150788025000     0.929433550000   
C      0.383575250000     0.087918515000     0.938789725000   
C      0.382527000000     0.183100090000     0.924610050000   
C      0.383900400000     0.055606400000     0.943613230000   
C      0.384077700000     0.028618315000     0.947637300000   
C      0.382349730000     0.210088200000     0.920586000000   
N      0.391760850000     0.317817270000     0.855098275000   
N      0.372383535000     0.420848725000     0.512687685000   
N      0.400120450000     0.192670300000     0.748518765000   
N      0.366525620000     0.045664090000     0.620799460000   
O      0.306717150000     0.258304415000     0.802470900000   
O      0.458564700000     0.230128950000     0.816532550000   
O      0.300204425000     0.212625050000     0.825646250000   
O      0.465077500000     0.275808335000     0.793357150000   
O      0.307829915000     0.312771950000     0.919244020000   
O      0.455909135000     0.426424100000     0.947424250000   
O      0.428424000000     0.291860370000     0.792756200000   
O      0.337769250000     0.445861100000     0.575507550000   
O      0.338956980000     0.273852550000     0.784215300000   
O      0.427236200000     0.463868900000     0.584048430000   
O      0.430654170000     0.115427190000     0.742798970000   
O      0.336006200000     0.122912035000     0.626516240000   
O      0.018577395000     0.050959290000     0.643933250000   
O      0.456630320000     0.012391805000     0.619620455000   
O      0.308507250000     0.467511250000     0.500176800000   
O      0.236848650000     0.437304400000     0.974269050000   
O      0.426328400000     0.261977375000     0.913027300000   
O      0.340098950000     0.476729125000     0.955196000000   
O      0.337434050000     0.250907250000     0.914318920000   
O      0.428993200000     0.487799300000     0.953904400000   
Zn     0.443581400000     0.502118765000     0.059180165000   
Zn     0.324053525000     0.986179380000     0.059570915000   
Zn     0.381984620000     0.719335510000     0.330559225000   
Zn     0.381598475000     0.770317000000     0.287844100000   
H      0.037715385000     0.763293415000     0.254638250000   
H      0.226669150000     0.724189950000     0.363916700000   
H      0.138024225000     0.730520950000     0.370996900000   
H      0.126139775000     0.756850850000     0.247333870000   
H      0.093975580000     0.810673835000     0.361741065000   
H      0.023395350000     0.801453750000     0.349146400000   
H      0.043480900000     0.800695900000     0.388949950000   
H      0.016097890000     0.745892375000     0.364435970000   
H      0.082736050000     0.756625625000     0.380155535000   
H      0.243123000000     0.687659325000     0.269414450000   
H      0.173216750000     0.678168120000     0.255423000000   
H      0.225488275000     0.689292820000     0.229423585000   
H      0.183755680000     0.732513150000     0.238402830000   
H      0.249908180000     0.743562340000     0.254617650000   
H      0.310798300000     0.850183200000     0.468959700000   
H      0.452591150000     0.888871970000     0.398369750000   
H      0.320551700000     0.790585250000     0.458840550000   
H      0.368278000000     0.788597700000     0.429883650000   
H      0.248089180000     0.755854280000     0.423965550000   
H      0.296056450000     0.754296650000     0.395560115000   
H      0.350643725000     0.729759600000     0.432960800000   
H      0.283015220000     0.706718300000     0.425152300000   
H      0.300813950000     0.730509535000     0.460644300000   
H      0.454152500000     0.972462475000     0.457463500000   
H      0.389930500000     0.948850425000     0.444465725000   
H      0.488297250000     0.966083170000     0.405237600000   
H      0.422787575000     0.943227200000     0.391697315000   
H      0.382147550000     0.989106900000     0.404946000000   
H      0.434070150000     0.998810600000     0.378483685000   
H      0.448052000000     0.512151300000     0.418332430000   
H      0.297350825000     0.869151300000     0.154730575000   
H      0.468858480000     0.868550150000     0.213525785000   
H      0.468646750000     0.903498700000     0.171130800000   
H      0.297562550000     0.834202800000     0.197125600000   
H      0.414627950000     0.571129470000     0.197511600000   
H      0.352018950000     0.667207120000     0.171804710000   
H      0.382527250000     0.571933420000     0.251097230000   
H      0.355924300000     0.606080950000     0.261819450000   
H      0.427429600000     0.621907665000     0.303591430000   
H      0.389416070000     0.582261630000     0.307089625000   
H      0.455587550000     0.588628135000     0.292726665000   
H      0.410748275000     0.632281540000     0.107508480000   
H      0.384103050000     0.666413200000     0.118227125000   
H      0.311056550000     0.649698700000     0.076588840000   
H      0.377239525000     0.656107770000     0.062239835000   
H      0.339279000000     0.616444530000     0.065721205000   
H      0.112126240000     0.549702465000     0.133716730000   
H      0.096088370000     0.983969450000     0.016920860000   
H      0.076258150000     0.938786270000     0.478056520000   
H      0.039745230000     0.931463900000     0.424291730000   
H      0.091751750000     0.959236475000     0.383892300000   
H      0.180791870000     0.994663400000     0.397438200000   
H      0.217786450000     0.502797125000     0.451116850000   
H      0.285800250000     0.986197620000     0.048861430000   
H      0.057723935000     0.955227525000     0.061591010000   
H      0.492379350000     0.968914180000     0.095208450000   
H      0.226621600000     0.997733700000     0.086216235000   
H      0.176394730000     0.536406695000     0.099604845000   
H      0.470146700000     0.603223490000     0.439986550000   
H      0.296280750000     0.635483025000     0.428236750000   
H      0.296965720000     0.580475270000     0.436410350000   
H      0.469461620000     0.658231260000     0.431812970000   
C      0.279146050000     0.733894275000     0.314071600000   
C      0.486111520000     0.754501550000     0.304867270000   
C      0.042376595000     0.756846280000     0.303066150000   
C      0.222753240000     0.731367850000     0.315614820000   
C      0.152239100000     0.734122770000     0.348514650000   
C      0.112381080000     0.753561170000     0.269939800000   
C      0.202487635000     0.728890910000     0.344324230000   
C      0.062172210000     0.758838450000     0.274221100000   
C      0.191178550000     0.735203085000     0.289466085000   
C      0.074153490000     0.753119350000     0.329136150000   
C      0.142106890000     0.743977150000     0.294156450000   
C      0.122887425000     0.744020700000     0.324348800000   
C      0.056120815000     0.760798065000     0.360950975000   
C      0.054075225000     0.795514750000     0.365294950000   
C      0.210074100000     0.728247360000     0.257688015000   
C      0.213189990000     0.693738385000     0.252862720000   
C      0.341882080000     0.858824430000     0.453691050000   
C      0.421287775000     0.880372550000     0.413553550000   
C      0.378256915000     0.887782350000     0.461239575000   
C      0.384928550000     0.851437270000     0.406021475000   
C      0.417696300000     0.898800435000     0.440513250000   
C      0.345232665000     0.840595635000     0.426506050000   
C      0.374914300000     0.906092750000     0.489993100000   
C      0.388839630000     0.832764120000     0.377609400000   
C      0.325335115000     0.788298000000     0.433782100000   
C      0.291152350000     0.756719320000     0.420555980000   
C      0.307560600000     0.729275165000     0.435837550000   
C      0.433812500000     0.952658550000     0.441045880000   
C      0.444561550000     0.962311685000     0.408469200000   
C      0.425989700000     0.992488150000     0.402260870000   
C      0.382753600000     0.925882815000     0.114951715000   
C      0.383442650000     0.811830225000     0.253304800000   
C      0.334916175000     0.849244550000     0.191553085000   
C      0.431293050000     0.888462125000     0.176697165000   
C      0.431410450000     0.868593700000     0.200797930000   
C      0.334798725000     0.869112900000     0.167452335000   
C      0.383226150000     0.849108350000     0.208077670000   
C      0.382983120000     0.888598200000     0.160172490000   
C      0.383599650000     0.791718850000     0.277722500000   
C      0.382593450000     0.946002650000     0.090541235000   
C      0.383334900000     0.828864700000     0.232639300000   
C      0.382872800000     0.908846150000     0.135614500000   
C      0.400581550000     0.591945840000     0.191758065000   
C      0.366064520000     0.646388560000     0.177560150000   
C      0.377347050000     0.593430000000     0.162160935000   
C      0.389299035000     0.644904390000     0.207157270000   
C      0.360632650000     0.621163325000     0.155048000000   
C      0.406020550000     0.617173515000     0.214268715000   
C      0.371348000000     0.566753315000     0.139130130000   
C      0.395297470000     0.671578400000     0.230185775000   
C      0.393189750000     0.596818210000     0.260622450000   
C      0.418028050000     0.597475700000     0.293052375000   
C      0.373467500000     0.641533690000     0.108699680000   
C      0.348640680000     0.640871315000     0.076265910000   