%BLOCK LATTICE_CART
ang    # angstrom units
  9.139650000000     0.000000000000     0.000000000000   
 -0.117288956892     18.463257461171    0.000000000000   
 -1.195952575583    -0.845224036142     24.559795794389  
%ENDBLOCK LATTICE_CART

%BLOCK POSITIONS_FRAC
Zn     0.134321780000     0.085275920000     0.326424480000   
Zn     0.073110223333     0.036131535000     0.393042900000   
Cu     0.161319783333     0.209583100000     0.047859810000   
Cu     0.060632606667     0.207324625000     0.038313180000   
Cu     0.159008313333     0.372567350000     0.706000750000   
Cu     0.059502890000     0.367586730000     0.694369600000   
H      0.279921766667     0.172182290000     0.887163500000   
H      0.317904453333     0.362625450000     0.764954030000   
H      0.057756696667     0.326338680000     0.025214670000   
H      0.141921360000     0.370614170000     0.985535560000   
H      0.313383966667     0.255992550000     0.780637300000   
H      0.312859953333     0.267582475000     0.709591100000   
H      0.007350863333     0.226036580000     0.731458660000   
H      0.070943723333     0.272213100000     0.715835600000   
H      0.071265460000     0.260380150000     0.785990600000   
H      0.022072463333     0.316258670000     0.807222250000   
H      0.018176120000     0.327201275000     0.739923500000   
H      0.265128910000     0.258309000000     0.886222600000   
H      0.268269833333     0.210745035000     0.901862900000   
H      0.254306953333     0.223977060000     0.832995060000   
H      0.179216433333     0.203608530000     0.876278940000   
H      0.176393066667     0.250226450000     0.858921230000   
H      0.198019366667     0.269888950000     0.955461300000   
H      0.210124900000     0.225677090000     0.973297660000   
H      0.319758016667     0.366821080000     0.641597330000   
H      0.029014230000     0.393293830000     0.605187200000   
H      0.011768826667     0.348118275000     0.580567300000   
H      0.093341073333     0.344989270000     0.625772500000   
H      0.051069280000     0.322277050000     0.662831300000   
H      0.042307596667     0.381739170000     0.723432900000   
H      0.087015000000     0.401826920000     0.689803700000   
H      0.232994100000     0.142231050000     0.031993630000   
H      0.179145266667     0.115438230000     0.042772890000   
H      0.213027120000     0.107300365000     0.982603000000   
H      0.138807233333     0.142055110000     0.957688870000   
H      0.192492433333     0.168154120000     0.950607540000   
H      0.179046610000     0.201255470000     0.040720700000   
H      0.133954966667     0.171471925000     0.053743360000   
H      0.210955380000     0.408463420000     0.091522210000   
H      0.245365000000     0.490957350000     0.352164900000   
H      0.324349366667     0.485644130000     0.029466280000   
H      0.283240233333     0.454649100000     0.992835460000   
H      0.267028986667     0.001211820000     0.999791600000   
H      0.220291233333     0.469257830000     0.064553140000   
H      0.266582000000     0.495042500000     0.102610550000   
H      0.321394166667     0.458323550000     0.334241330000   
H      0.014129640000     0.423964000000     0.197263460000   
H      0.043475110000     0.444453450000     0.258493420000   
H      0.066236100000     0.402685285000     0.230158250000   
H      0.018483720000     0.390711070000     0.311016700000   
H      0.324249743333     0.370095500000     0.250115660000   
H      0.278504666667     0.478139700000     0.272931930000   
H      0.320386946667     0.485157500000     0.331710100000   
H      0.315073733333     0.018990695000     0.280701250000   
H      0.057608340000     0.483011800000     0.271624400000   
H      0.016659273333     0.477452950000     0.212662400000   
H      0.319817683333     0.417947680000     0.249396400000   
H      0.025097583333     0.426556250000     0.307993900000   
H      0.219489733333     0.472797575000     0.057153210000   
H      0.193603433333     0.016256390000     0.074343190000   
H      0.241780766667     0.498089375000     0.117717850000   
H      0.137166193333     0.467425250000     0.098153300000   
H      0.160558273333     0.491493950000     0.158236680000   
H      0.220995586667     0.445377500000     0.175960840000   
H      0.206714750000     0.419779420000     0.117028280000   
H      0.018599813333     0.460304900000     0.116994720000   
H      0.239950020000     0.380764500000     0.230547760000   
H      0.327659300000     0.353260575000     0.174661860000   
H      0.167186616667     0.470631720000     0.306913520000   
H      0.242927366667     0.354118800000     0.135856880000   
H      0.261234366667     0.206429350000     0.155786450000   
H      0.063314253333     0.075360360000     0.375095250000   
H      0.124861366667     0.103915550000     0.320140000000   
H      0.210166653333     0.178786800000     0.223131700000   
H      0.180786633333     0.108949200000     0.170933630000   
H      0.182696423333     0.045942635000     0.171831560000   
H      0.122338423333     0.044184280000     0.196775300000   
H      0.173496246667     0.059661470000     0.241697090000   
H      0.072373886667     0.167242840000     0.274828230000   
H      0.066089033333     0.229821325000     0.268763120000   
H      0.093104113333     0.228485270000     0.203759120000   
H      0.130670616667     0.221361580000     0.265432750000   
H      0.217824666667     0.206345600000     0.495690730000   
H      0.288911766667     0.182966550000     0.548795760000   
H      0.277821166667     0.154755430000     0.637363200000   
H      0.194892000000     0.148582900000     0.671953100000   
H      0.123183240000     0.170513230000     0.618762400000   
H      0.328382766667     0.228083120000     0.569975440000   
H      0.256725886667     0.250117900000     0.516360640000   
H      0.266569633333     0.275947750000     0.426050870000   
H      0.015694636667     0.281808375000     0.390283640000   
H      0.088227733333     0.262305320000     0.444445820000   
H      0.106357300000     0.478402585000     0.681490300000   
H      0.053100963333     0.464035950000     0.599440600000   
H      0.299727676667     0.446941585000     0.608564300000   
H      0.265690600000     0.445240300000     0.700018800000   
H      0.318124800000     0.460458600000     0.782395240000   
H      0.124693026667     0.403670600000     0.914467000000   
H      0.181119043333     0.357042150000     0.949814740000   
H      0.268677333333     0.358939100000     0.929200700000   
H      0.300286566667     0.408274050000     0.874375340000   
H      0.244600033333     0.455652120000     0.839935840000   
H      0.090048780000     0.096887575000     0.060343150000   
H      0.030649750000     0.108916870000     0.131180400000   
H      0.277703086667     0.122183450000     0.104850530000   
H      0.250314700000     0.122367350000     0.007294650000   
H      0.308962533333     0.109449595000     0.935975600000   
H      0.121179213333     0.172419400000     0.832396900000   
H      0.177459533333     0.221316100000     0.808298300000   
H      0.262956123333     0.222836360000     0.846044360000   
H      0.292764400000     0.174675880000     0.906861200000   
H      0.237312713333     0.125065200000     0.930209500000   
H      0.120419193333     0.475306350000     0.655452670000   
H      0.075456046667     0.322835685000     0.575321200000   
H      0.022683960000     0.275695235000     0.528889240000   
H      0.266474900000     0.284185530000     0.520001650000   
H      0.229808733333     0.340749700000     0.555868740000   
H      0.282031376667     0.388262550000     0.602014060000   
H      0.264966290000     0.043930410000     0.456347300000   
H      0.317249633333     0.091401460000     0.502497600000   
H      0.280659733333     0.147994460000     0.538365200000   
H      0.191127333333     0.156556070000     0.529470100000   
H      0.138296643333     0.109451530000     0.483045400000   
H      0.317069566667     0.443260550000     0.522257600000   
H      0.288701900000     0.433556850000     0.425864160000   
H      0.332757766667     0.391300800000     0.365398600000   
H      0.072119663333     0.358624370000     0.401458300000   
H      0.101079186667     0.368195115000     0.497649280000   
H      0.112509023333     0.064143775000     0.560664530000   
H      0.141269800000     0.073620320000     0.656944400000   
H      0.213821333333     0.040847780000     0.693149200000   
H      0.257961890000     0.498613330000     0.632738950000   
H      0.229802466667     0.488999900000     0.536267300000   
H      0.148497680000     0.453707850000     0.249436040000   
H      0.151680766667     0.485241770000     0.786971400000   
H      0.093142260000     0.456981300000     0.403052120000   
C      0.186232943333     0.361879530000     0.797427950000   
C      0.031799410000     0.230152200000     0.969301800000   
C      0.160713366667     0.348166650000     0.841874240000   
C      0.050553400000     0.263060870000     0.950404900000   
C      0.116579673333     0.328920450000     0.831151250000   
C      0.100264916667     0.265306400000     0.938536500000   
C      0.092398673333     0.333747120000     0.780193300000   
C      0.131544133333     0.238118900000     0.958616500000   
C      0.112365513333     0.358180000000     0.742232740000   
C      0.112530826667     0.209969685000     0.991221300000   
C      0.043056330000     0.314411300000     0.769974300000   
C      0.050083980000     0.274366700000     0.753384700000   
C      0.001093736667     0.254879050000     0.743155200000   
C      0.185636766667     0.241548850000     0.946581360000   
C      0.194613466667     0.230980115000     0.886827400000   
C      0.249034133333     0.231036560000     0.876502900000   
C      0.075804780000     0.374744175000     0.701799500000   
C      0.061991896667     0.349708950000     0.651538430000   
C      0.019714263333     0.365565420000     0.617633900000   
C      0.149037633333     0.185086265000     0.019802090000   
C      0.169378200000     0.156072260000     0.980821900000   
C      0.200490000000     0.128576280000     0.011606220000   
C      0.209143956667     0.361146180000     0.724380900000   
C      0.011265753333     0.378622920000     0.677267100000   
C      0.256706656667     0.367330580000     0.707728400000   
C      0.297065700000     0.372419850000     0.693990770000   
C      0.104448923333     0.394297630000     0.090811890000   
C      0.111718753333     0.391045350000     0.313978430000   
C      0.279574613333     0.438030950000     0.099957470000   
C      0.286005516667     0.416698950000     0.282108930000   
C      0.328115046667     0.437074550000     0.120696780000   
C      0.109581466667     0.406221650000     0.260072470000   
C      0.241253600000     0.404565125000     0.257608320000   
C      0.012067733333     0.406869150000     0.148522390000   
C      0.198384343333     0.424319200000     0.265467200000   
C      0.314667800000     0.376760700000     0.153297650000   
C      0.199969550000     0.455163450000     0.300448540000   
C      0.266637583333     0.377307000000     0.131800880000   
C      0.244198680000     0.466880050000     0.325764780000   
C      0.248768586667     0.408086950000     0.106323770000   
C      0.287153133333     0.448162900000     0.315880150000   
C      0.064062820000     0.412641375000     0.233474460000   
C      0.104981900000     0.405645450000     0.148638530000   
C      0.149337590000     0.417510000000     0.176703690000   
C      0.260306200000     0.471575675000     0.073622760000   
C      0.285372713333     0.478646350000     0.020874820000   
C      0.332443853333     0.396548780000     0.271674660000   
C      0.032674910000     0.418407900000     0.237243430000   
C      0.022150453333     0.430128870000     0.263636980000   
C      0.021902656667     0.471246550000     0.256272140000   
C      0.314686400000     0.489406350000     0.287397150000   
C      0.189731666667     0.437304650000     0.148027120000   
C      0.170538733333     0.472681135000     0.124375930000   
C      0.152455166667     0.414647000000     0.233619200000   
C      0.208829920000     0.491009770000     0.091357220000   
C      0.061038503333     0.407950280000     0.176726200000   
C      0.224051613333     0.198499950000     0.144154850000   
C      0.055107290000     0.079425695000     0.332314370000   
C      0.195071716667     0.183018750000     0.182357120000   
C      0.089940600000     0.095530080000     0.301194800000   
C      0.146921366667     0.172798975000     0.167629440000   
C      0.079405800000     0.100919635000     0.245850370000   
C      0.128168273333     0.178779365000     0.114288720000   
C      0.033526493333     0.089861600000     0.222250580000   
C      0.158723900000     0.194870785000     0.077050240000   
C      0.332667846667     0.073841655000     0.255493820000   
C      0.116516633333     0.155574560000     0.208518860000   
C      0.116618100000     0.118738225000     0.213116100000   
C      0.157246033333     0.059698375000     0.199441900000   
C      0.094322056667     0.216356800000     0.244485020000   
C      0.308948533333     0.028285540000     0.408983470000   
C      0.235454900000     0.094383390000     0.312534480000   
C      0.283153316667     0.051484950000     0.375131250000   
C      0.261256866667     0.071177930000     0.346395580000   
C      0.098238726667     0.171025290000     0.364145550000   
C      0.115354733333     0.263909070000     0.700015370000   
C      0.105621346667     0.252249630000     0.644827840000   
C      0.107684353333     0.182301910000     0.419475140000   
C      0.090267300000     0.229006710000     0.542855500000   
C      0.122376850000     0.205086450000     0.521656400000   
C      0.115189760000     0.192087665000     0.466086720000   
C      0.097779543333     0.242187260000     0.598355770000   
C      0.165218483333     0.190910175000     0.553760650000   
C      0.212318733333     0.193684430000     0.534019900000   
C      0.252713920000     0.180588035000     0.564075770000   
C      0.246486146667     0.164626730000     0.613983800000   
C      0.199750920000     0.161189950000     0.633515360000   
C      0.159216966667     0.173912915000     0.603387600000   
C      0.047063286667     0.242788750000     0.510798900000   
C      0.000136473333     0.240015075000     0.531013370000   
C      0.292696753333     0.252174850000     0.500602000000   
C      0.298252283333     0.266948400000     0.449744500000   
C      0.011408860000     0.270319285000     0.429646000000   
C      0.052397410000     0.258859900000     0.460295320000   
C      0.016920566667     0.200535820000     0.053022280000   
C      0.257990300000     0.211342275000     0.039680510000   
C      0.300330220000     0.206363950000     0.045833170000   
C      0.208066243333     0.217167150000     0.032487050000   
C      0.104318340000     0.159349485000     0.965316400000   
C      0.143141350000     0.082328675000     0.873332200000   
C      0.079595180000     0.011832385000     0.813689200000   
C      0.145102466667     0.494557380000     0.877597700000   
C      0.116818476667     0.416156200000     0.779010360000   
C      0.074433873333     0.062332115000     0.923885050000   
C      0.141412000000     0.116593500000     0.898823100000   
C      0.081357673333     0.477961800000     0.786987700000   
C      0.146836053333     0.460283130000     0.852136600000   
C      0.072670300000     0.096189945000     0.950625540000   
C      0.106155106667     0.123623730000     0.937934200000   
C      0.114982233333     0.451888325000     0.806373060000   
C      0.109647000000     0.055518475000     0.885720250000   
C      0.111482243333     0.020010875000     0.858518060000   
C      0.175441343333     0.145098250000     0.882589700000   
C      0.158709486667     0.172499580000     0.848313600000   
C      0.190384700000     0.200287475000     0.834863660000   
C      0.238635966667     0.201113565000     0.856072370000   
C      0.255462166667     0.173910470000     0.890264330000   
C      0.224077966667     0.145822465000     0.903278950000   
C      0.049173210000     0.470788900000     0.737701060000   
C      0.068295776667     0.471592100000     0.685832200000   
C      0.038332110000     0.463287175000     0.639385800000   
C      0.322732450000     0.453707575000     0.644523000000   
C      0.303521266667     0.452828400000     0.696085450000   
C      0.333208866667     0.461557030000     0.742602900000   
C      0.180793533333     0.433150680000     0.875154440000   
C      0.163059343333     0.405093075000     0.906068900000   
C      0.194832500000     0.378581525000     0.925851600000   
C      0.244238633333     0.379683800000     0.914308550000   
C      0.262075266667     0.407548300000     0.883494440000   
C      0.230540300000     0.434373400000     0.864205400000   
C      0.036892363333     0.101975750000     0.993163350000   
C      0.052234193333     0.102021740000     0.048452620000   
C      0.018780156667     0.109008775000     0.088585730000   
C      0.303426733333     0.116427550000     0.073737380000   
C      0.287971813333     0.116453355000     0.018734690000   
C      0.321172333333     0.109030835000     0.978481400000   
C      0.061801810000     0.412492900000     0.574380800000   
C      0.124297733333     0.488451600000     0.469106350000   
C      0.089299800000     0.443854950000     0.589313150000   
C      0.112455426667     0.481986100000     0.414334480000   
C      0.101149166667     0.450300650000     0.644098100000   
C      0.126203090000     0.005722700000     0.374004800000   
C      0.087429933333     0.426543450000     0.684353230000   
C      0.015501820000     0.357771400000     0.596041700000   
C      0.036246283333     0.326455770000     0.572893500000   
C      0.006531023333     0.299867450000     0.546145140000   
C      0.289409433333     0.304722050000     0.540911260000   
C      0.268712420000     0.336495520000     0.561468100000   
C      0.298308866667     0.363137100000     0.588229660000   
C      0.198200980000     0.074473320000     0.462320900000   
C      0.248716653333     0.069068670000     0.470132230000   
C      0.278350066667     0.095690070000     0.496896830000   
C      0.257694033333     0.127477585000     0.517455400000   
C      0.207249733333     0.132371070000     0.512222230000   
C      0.177503190000     0.105802415000     0.485473700000   
C      0.044183830000     0.406196685000     0.516801360000   
C      0.003122893333     0.424684880000     0.496166740000   
C      0.320363633333     0.419251470000     0.441684200000   
C      0.011865810000     0.395418850000     0.407593500000   
C      0.052842443333     0.376988300000     0.427928030000   
C      0.069076770000     0.382371550000     0.482368470000   
C      0.169397553333     0.026117145000     0.541608600000   
C      0.144467680000     0.049939035000     0.576009700000   
C      0.160588253333     0.055270135000     0.630496140000   
C      0.201485333333     0.036782800000     0.650913900000   
C      0.226365090000     0.012963355000     0.616856100000   
C      0.210393746667     0.007584035000     0.562325840000   
C      0.166139206667     0.043757615000     0.443004340000   
C      0.047523940000     0.388507600000     0.615363600000   
C      0.151821860000     0.019800365000     0.484015260000   
S      0.306711200000     0.216545835000     0.940276900000   
S      0.251543900000     0.362835500000     0.808355600000   
S      0.014832773333     0.302887230000     0.956931900000   
S      0.178019833333     0.362757100000     0.910080250000   
S      0.111446786667     0.488457350000     0.306412040000   
S      0.102416723333     0.443774225000     0.751820270000   
N      0.161174616667     0.370036700000     0.748321300000   
N      0.062188206667     0.205984665000     0.996316850000   
N      0.094253133333     0.304957120000     0.868828200000   
N      0.121071426667     0.293540050000     0.907052500000   
N      0.205922823333     0.204084000000     0.092697060000   
N      0.011010806667     0.068768130000     0.309300800000   
N      0.286262453333     0.061876170000     0.232622740000   
N      0.139492023333     0.203038650000     0.023826080000   
N      0.149473846667     0.096560770000     0.182856750000   
N      0.084244433333     0.177800850000     0.239523470000   
N      0.079186186667     0.167855010000     0.097409760000   
N      0.021757756667     0.094546395000     0.165331300000   
N      0.153362940000     0.037083985000     0.387954030000   
N      0.060311810000     0.395163925000     0.670413800000   
N      0.112264543333     0.460678550000     0.505974900000   
N      0.101330160000     0.471636150000     0.552456000000   
O      0.270313900000     0.212549580000     0.983402850000   
O      0.287528633333     0.243713930000     0.900602940000   
O      0.312547366667     0.177077530000     0.905075430000   
O      0.267216166667     0.396881730000     0.839716100000   
O      0.266209000000     0.331009300000     0.841788650000   
O      0.283218900000     0.360005470000     0.752106400000   
O      0.330831446667     0.315432875000     0.902005550000   
O      0.304383966667     0.295745430000     0.989585600000   
O      0.048262720000     0.336017670000     0.989191060000   
O      0.214502366667     0.337115170000     0.934681500000   
O      0.199811000000     0.400201950000     0.911102060000   
O      0.128851940000     0.364508330000     0.948081900000   
O      0.203595800000     0.336807280000     0.760696650000   
O      0.016769010000     0.402809085000     0.640690450000   
O      0.046701273333     0.359259550000     0.698158860000   
O      0.173663556667     0.380356820000     0.703228200000   
O      0.144822906667     0.391285030000     0.067535440000   
O      0.072293306667     0.379722265000     0.333539550000   
O      0.064073243333     0.387457700000     0.063825750000   
O      0.153043000000     0.383549570000     0.337249200000   
O      0.282862833333     0.031168905000     0.205184710000   
O      0.250504016667     0.084770560000     0.228901900000   
O      0.100978453333     0.223226025000     0.018164940000   
O      0.156976566667     0.187217310000     0.981099800000   
O      0.070623006667     0.149924530000     0.051449980000   
O      0.042710050000     0.177029950000     0.126698060000   
O      0.313418846667     0.108240330000     0.149426180000   
O      0.052072213333     0.084191075000     0.128952260000   
O      0.285056053333     0.005887960000     0.436044040000   
O      0.259347366667     0.116780975000     0.285473880000   
O      0.188901033333     0.092366750000     0.309855520000   
O      0.022169033333     0.030302180000     0.411662460000   
O      0.131304710000     0.152653010000     0.340105180000   
O      0.082368576667     0.282401500000     0.724029200000   
O      0.057002066667     0.179195540000     0.339884400000   
O      0.156671216667     0.255859000000     0.724250000000   
O      0.045568466667     0.218187870000     0.022579330000   
O      0.031310120000     0.177889260000     0.089650060000   
O      0.193684776667     0.239810650000     0.995834700000   
O      0.179421233333     0.199497300000     0.062929970000   
O      0.144594976667     0.175510375000     0.981122600000   
O      0.076541623333     0.399993200000     0.763210700000   
O      0.158670723333     0.401663800000     0.771332500000   
O      0.062465880000     0.173839750000     0.973000800000   
O      0.069218933333     0.462306400000     0.307249600000   
O      0.097569346667     0.016861615000     0.266653900000   
O      0.159896990000     0.465396350000     0.284657330000   
O      0.059301053333     0.464367900000     0.771808860000   
O      0.116740766667     0.415396870000     0.791444060000   
O      0.149720786667     0.472977150000     0.750485700000   
F      0.176707090000     0.075249970000     0.835547900000   
F      0.047585866667     0.037170930000     0.795381000000   
F      0.175374150000     0.002934550000     0.921723500000   
F      0.042601383333     0.035696550000     0.935832260000   
Zn     0.134321780000     0.585275920000     0.326424480000   
Zn     0.073110223333     0.536131535000     0.393042900000   
Cu     0.161319783333     0.709583100000     0.047859810000   
Cu     0.060632606667     0.707324625000     0.038313180000   
Cu     0.159008313333     0.872567350000     0.706000750000   
Cu     0.059502890000     0.867586730000     0.694369600000   
H      0.279921766667     0.672182290000     0.887163500000   
H      0.317904453333     0.862625450000     0.764954030000   
H      0.057756696667     0.826338680000     0.025214670000   
H      0.141921360000     0.870614170000     0.985535560000   
H      0.313383966667     0.755992550000     0.780637300000   
H      0.312859953333     0.767582475000     0.709591100000   
H      0.007350863333     0.726036580000     0.731458660000   
H      0.070943723333     0.772213100000     0.715835600000   
H      0.071265460000     0.760380150000     0.785990600000   
H      0.022072463333     0.816258670000     0.807222250000   
H      0.018176120000     0.827201275000     0.739923500000   
H      0.265128910000     0.758309000000     0.886222600000   
H      0.268269833333     0.710745035000     0.901862900000   
H      0.254306953333     0.723977060000     0.832995060000   
H      0.179216433333     0.703608530000     0.876278940000   
H      0.176393066667     0.750226450000     0.858921230000   
H      0.198019366667     0.769888950000     0.955461300000   
H      0.210124900000     0.725677090000     0.973297660000   
H      0.319758016667     0.866821080000     0.641597330000   
H      0.029014230000     0.893293830000     0.605187200000   
H      0.011768826667     0.848118275000     0.580567300000   
H      0.093341073333     0.844989270000     0.625772500000   
H      0.051069280000     0.822277050000     0.662831300000   
H      0.042307596667     0.881739170000     0.723432900000   
H      0.087015000000     0.901826920000     0.689803700000   
H      0.232994100000     0.642231050000     0.031993630000   
H      0.179145266667     0.615438230000     0.042772890000   
H      0.213027120000     0.607300365000     0.982603000000   
H      0.138807233333     0.642055110000     0.957688870000   
H      0.192492433333     0.668154120000     0.950607540000   
H      0.179046610000     0.701255470000     0.040720700000   
H      0.133954966667     0.671471925000     0.053743360000   
H      0.210955380000     0.908463420000     0.091522210000   
H      0.245365000000     0.990957350000     0.352164900000   
H      0.324349366667     0.985644130000     0.029466280000   
H      0.283240233333     0.954649100000     0.992835460000   
H      0.267028986667     0.501211820000     0.999791600000   
H      0.220291233333     0.969257830000     0.064553140000   
H      0.266582000000     0.995042500000     0.102610550000   
H      0.321394166667     0.958323550000     0.334241330000   
H      0.014129640000     0.923964000000     0.197263460000   
H      0.043475110000     0.944453450000     0.258493420000   
H      0.066236100000     0.902685285000     0.230158250000   
H      0.018483720000     0.890711070000     0.311016700000   
H      0.324249743333     0.870095500000     0.250115660000   
H      0.278504666667     0.978139700000     0.272931930000   
H      0.320386946667     0.985157500000     0.331710100000   
H      0.315073733333     0.518990695000     0.280701250000   
H      0.057608340000     0.983011800000     0.271624400000   
H      0.016659273333     0.977452950000     0.212662400000   
H      0.319817683333     0.917947680000     0.249396400000   
H      0.025097583333     0.926556250000     0.307993900000   
H      0.219489733333     0.972797575000     0.057153210000   
H      0.193603433333     0.516256390000     0.074343190000   
H      0.241780766667     0.998089375000     0.117717850000   
H      0.137166193333     0.967425250000     0.098153300000   
H      0.160558273333     0.991493950000     0.158236680000   
H      0.220995586667     0.945377500000     0.175960840000   
H      0.206714750000     0.919779420000     0.117028280000   
H      0.018599813333     0.960304900000     0.116994720000   
H      0.239950020000     0.880764500000     0.230547760000   
H      0.327659300000     0.853260575000     0.174661860000   
H      0.167186616667     0.970631720000     0.306913520000   
H      0.242927366667     0.854118800000     0.135856880000   
H      0.261234366667     0.706429350000     0.155786450000   
H      0.063314253333     0.575360360000     0.375095250000   
H      0.124861366667     0.603915550000     0.320140000000   
H      0.210166653333     0.678786800000     0.223131700000   
H      0.180786633333     0.608949200000     0.170933630000   
H      0.182696423333     0.545942635000     0.171831560000   
H      0.122338423333     0.544184280000     0.196775300000   
H      0.173496246667     0.559661470000     0.241697090000   
H      0.072373886667     0.667242840000     0.274828230000   
H      0.066089033333     0.729821325000     0.268763120000   
H      0.093104113333     0.728485270000     0.203759120000   
H      0.130670616667     0.721361580000     0.265432750000   
H      0.217824666667     0.706345600000     0.495690730000   
H      0.288911766667     0.682966550000     0.548795760000   
H      0.277821166667     0.654755430000     0.637363200000   
H      0.194892000000     0.648582900000     0.671953100000   
H      0.123183240000     0.670513230000     0.618762400000   
H      0.328382766667     0.728083120000     0.569975440000   
H      0.256725886667     0.750117900000     0.516360640000   
H      0.266569633333     0.775947750000     0.426050870000   