%BLOCK LATTICE_CART
ang    # angstrom units
  19.638950000000    0.000000000000     0.000000000000   
  3.568927829345     19.212660729785    0.000000000000   
  5.177280215075     5.643267366691     18.363605444061  
%ENDBLOCK LATTICE_CART

%BLOCK POSITIONS_FRAC
Zn     0.467300030000     0.181998340000     0.315110920000   
Zn     0.466458400000     0.154532650000     0.253765075000   
Zn     0.437120850000     0.448110350000     0.293916525000   
Zn     0.495638430000     0.394228850000     0.272882430000   
Zn     0.247108875000     0.409912020000     0.007266955000   
Zn     0.184745610000     0.431266070000     0.059948705000   
H      0.106158675000     0.101753540000     0.372360600000   
H      0.055169545000     0.091848330000     0.427028500000   
H      0.143742440000     0.066597985000     0.407933175000   
H      0.092767330000     0.056707120000     0.462611900000   
H      0.067275265000     0.019281175000     0.475226135000   
H      0.155703230000     0.036458560000     0.380336100000   
H      0.029383060000     0.054700205000     0.439331025000   
H      0.117833830000     0.071911240000     0.344457700000   
H      0.386128450000     0.244394975000     0.275451185000   
H      0.295533925000     0.346398325000     0.043804115000   
H      0.307380470000     0.285982280000     0.189768900000   
H      0.374287150000     0.304816950000     0.129482240000   
H      0.340923665000     0.310427250000     0.076745590000   
H      0.340737970000     0.280363470000     0.242509275000   
C      0.120572880000     0.394770050000     0.126195300000   
C      0.086035030000     0.432073350000     0.170444700000   
C      0.103984155000     0.412181000000     0.146187575000   
C      0.070406830000     0.447781475000     0.192266135000   
C      0.143016550000     0.374635600000     0.103116280000   
C      0.049359230000     0.463941450000     0.219343550000   
C      0.358677900000     0.455108200000     0.363735450000   
C      0.337685700000     0.409570575000     0.427438300000   
C      0.348205600000     0.434201700000     0.392949730000   
C      0.329432515000     0.387378550000     0.456389250000   
C      0.373406500000     0.480556575000     0.330345600000   
C      0.319085800000     0.358810700000     0.488878450000   
C      0.071382715000     0.019261655000     0.388507000000   
C      0.097807830000     0.494529215000     0.413560035000   
C      0.046282105000     0.083866315000     0.365787270000   
C      0.137138275000     0.498850050000     0.451866050000   
C      0.157114325000     0.481813730000     0.470589400000   
C      0.180675490000     0.461255550000     0.492506115000   
C      0.004416460000     0.126370600000     0.325480350000   
C      0.132779100000     0.049046685000     0.397073650000   
C      0.082082785000     0.039198940000     0.451469850000   
C      0.056599940000     0.063018700000     0.427344980000   
C      0.107314290000     0.072873740000     0.372958185000   
C      0.027086930000     0.103539405000     0.347386600000   
C      0.112908840000     0.019548280000     0.428933900000   
C      0.069772915000     0.059904620000     0.388068020000   
C      0.480930600000     0.092165725000     0.279662450000   
C      0.451385020000     0.494516820000     0.291297375000   
C      0.462640970000     0.028515475000     0.287069400000   
C      0.471322180000     0.057617735000     0.283214950000   
C      0.241350725000     0.392323435000     0.065756050000   
C      0.440317650000     0.198478370000     0.253495500000   
C      0.268972700000     0.372438100000     0.085457975000   
C      0.412694870000     0.218361125000     0.233793215000   
C      0.269693350000     0.376737350000     0.119149690000   
C      0.411977650000     0.214067475000     0.200099825000   
C      0.295958250000     0.356292425000     0.137838170000   
C      0.385713875000     0.234510200000     0.181408480000   
C      0.321048800000     0.331493230000     0.122884585000   
C      0.360620675000     0.259306430000     0.196364090000   
C      0.321342825000     0.329080580000     0.088560455000   
C      0.360321430000     0.261713115000     0.230692400000   
C      0.295463400000     0.349415150000     0.069941700000   
C      0.386201600000     0.241381100000     0.249311500000   
C      0.346445025000     0.306609600000     0.143032270000   
C      0.335222630000     0.284189650000     0.176218925000   
C      0.438029400000     0.340805620000     0.264094830000   
C      0.480657430000     0.239661530000     0.306749300000   
C      0.451295200000     0.303955900000     0.276740950000   
C      0.464393615000     0.274088980000     0.289754550000   
Cl     0.134173690000     0.470020350000     0.389427850000   
Cl     0.076780485000     0.458887815000     0.450978220000   
Cl     0.084521630000     0.016505760000     0.342359950000   
Cl     0.027129005000     0.005350740000     0.403898715000   
Cl     0.239135685000     0.408869775000     0.137356385000   
Cl     0.442540615000     0.181941000000     0.181889010000   
Cl     0.383396300000     0.227696775000     0.140254660000   
Cl     0.298278450000     0.363108785000     0.178989930000   
O      0.035194590000     0.496583450000     0.209423630000   
O      0.041474020000     0.443297325000     0.251484700000   
O      0.147543670000     0.390852000000     0.068473315000   
O      0.143319560000     0.339760250000     0.114935965000   
O      0.291379275000     0.364786415000     0.012130560000   
O      0.334952450000     0.327339620000     0.490520150000   
O      0.355336600000     0.012221155000     0.322245030000   
O      0.391737900000     0.467249000000     0.304699600000   
O      0.211378350000     0.449412585000     0.477149550000   
O      0.170258900000     0.453990500000     0.027132750000   
O      0.014814960000     0.133675500000     0.290874125000   
O      0.473729285000     0.138249600000     0.340816300000   
O      0.469741015000     0.464650200000     0.304752150000   
O      0.469459200000     0.105290295000     0.306599750000   
O      0.423357150000     0.494563135000     0.280555935000   
O      0.001464365000     0.109064765000     0.250261935000   
O      0.249213590000     0.405184985000     0.031086380000   
O      0.432454750000     0.185616865000     0.288165250000   
O      0.209454650000     0.396820425000     0.083239830000   
O      0.472213750000     0.193981380000     0.236011790000   
O      0.005912600000     0.225945300000     0.285092175000   
O      0.486583550000     0.236757830000     0.338082580000   
O      0.447869570000     0.357932250000     0.230925010000   
O      0.424069900000     0.356961900000     0.287673500000   
Zn     0.467300030000     0.181998340000     0.815110920000   
Zn     0.466458400000     0.154532650000     0.753765075000   
Zn     0.437120850000     0.448110350000     0.793916525000   
Zn     0.495638430000     0.394228850000     0.772882430000   
Zn     0.247108875000     0.409912020000     0.507266955000   
Zn     0.184745610000     0.431266070000     0.559948705000   
H      0.106158675000     0.101753540000     0.872360600000   
H      0.055169545000     0.091848330000     0.927028500000   
H      0.143742440000     0.066597985000     0.907933175000   
H      0.092767330000     0.056707120000     0.962611900000   
H      0.067275265000     0.019281175000     0.975226135000   
H      0.155703230000     0.036458560000     0.880336100000   
H      0.029383060000     0.054700205000     0.939331025000   
H      0.117833830000     0.071911240000     0.844457700000   
H      0.386128450000     0.244394975000     0.775451185000   
H      0.295533925000     0.346398325000     0.543804115000   
H      0.307380470000     0.285982280000     0.689768900000   
H      0.374287150000     0.304816950000     0.629482240000   
H      0.340923665000     0.310427250000     0.576745590000   
H      0.340737970000     0.280363470000     0.742509275000   
C      0.120572880000     0.394770050000     0.626195300000   
C      0.086035030000     0.432073350000     0.670444700000   
C      0.103984155000     0.412181000000     0.646187575000   
C      0.070406830000     0.447781475000     0.692266135000   
C      0.143016550000     0.374635600000     0.603116280000   
C      0.049359230000     0.463941450000     0.719343550000   
C      0.358677900000     0.455108200000     0.863735450000   
C      0.337685700000     0.409570575000     0.927438300000   
C      0.348205600000     0.434201700000     0.892949730000   
C      0.329432515000     0.387378550000     0.956389250000   
C      0.373406500000     0.480556575000     0.830345600000   
C      0.319085800000     0.358810700000     0.988878450000   
C      0.071382715000     0.019261655000     0.888507000000   
C      0.097807830000     0.494529215000     0.913560035000   
C      0.046282105000     0.083866315000     0.865787270000   
C      0.137138275000     0.498850050000     0.951866050000   
C      0.157114325000     0.481813730000     0.970589400000   
C      0.180675490000     0.461255550000     0.992506115000   
C      0.004416460000     0.126370600000     0.825480350000   
C      0.132779100000     0.049046685000     0.897073650000   
C      0.082082785000     0.039198940000     0.951469850000   
C      0.056599940000     0.063018700000     0.927344980000   
C      0.107314290000     0.072873740000     0.872958185000   
C      0.027086930000     0.103539405000     0.847386600000   
C      0.112908840000     0.019548280000     0.928933900000   
C      0.069772915000     0.059904620000     0.888068020000   
C      0.480930600000     0.092165725000     0.779662450000   
C      0.451385020000     0.494516820000     0.791297375000   
C      0.462640970000     0.028515475000     0.787069400000   
C      0.471322180000     0.057617735000     0.783214950000   
C      0.241350725000     0.392323435000     0.565756050000   
C      0.440317650000     0.198478370000     0.753495500000   
C      0.268972700000     0.372438100000     0.585457975000   
C      0.412694870000     0.218361125000     0.733793215000   
C      0.269693350000     0.376737350000     0.619149690000   
C      0.411977650000     0.214067475000     0.700099825000   
C      0.295958250000     0.356292425000     0.637838170000   
C      0.385713875000     0.234510200000     0.681408480000   
C      0.321048800000     0.331493230000     0.622884585000   
C      0.360620675000     0.259306430000     0.696364090000   
C      0.321342825000     0.329080580000     0.588560455000   
C      0.360321430000     0.261713115000     0.730692400000   
C      0.295463400000     0.349415150000     0.569941700000   
C      0.386201600000     0.241381100000     0.749311500000   
C      0.346445025000     0.306609600000     0.643032270000   
C      0.335222630000     0.284189650000     0.676218925000   
C      0.438029400000     0.340805620000     0.764094830000   
C      0.480657430000     0.239661530000     0.806749300000   
C      0.451295200000     0.303955900000     0.776740950000   
C      0.464393615000     0.274088980000     0.789754550000   
Cl     0.134173690000     0.470020350000     0.889427850000   
Cl     0.076780485000     0.458887815000     0.950978220000   
Cl     0.084521630000     0.016505760000     0.842359950000   
Cl     0.027129005000     0.005350740000     0.903898715000   
Cl     0.239135685000     0.408869775000     0.637356385000   
Cl     0.442540615000     0.181941000000     0.681889010000   
Cl     0.383396300000     0.227696775000     0.640254660000   
Cl     0.298278450000     0.363108785000     0.678989930000   
O      0.035194590000     0.496583450000     0.709423630000   
O      0.041474020000     0.443297325000     0.751484700000   
O      0.147543670000     0.390852000000     0.568473315000   
O      0.143319560000     0.339760250000     0.614935965000   
O      0.291379275000     0.364786415000     0.512130560000   
O      0.334952450000     0.327339620000     0.990520150000   
O      0.355336600000     0.012221155000     0.822245030000   
O      0.391737900000     0.467249000000     0.804699600000   
O      0.211378350000     0.449412585000     0.977149550000   
O      0.170258900000     0.453990500000     0.527132750000   
O      0.014814960000     0.133675500000     0.790874125000   
O      0.473729285000     0.138249600000     0.840816300000   
O      0.469741015000     0.464650200000     0.804752150000   
O      0.469459200000     0.105290295000     0.806599750000   
O      0.423357150000     0.494563135000     0.780555935000   
O      0.001464365000     0.109064765000     0.750261935000   
O      0.249213590000     0.405184985000     0.531086380000   
O      0.432454750000     0.185616865000     0.788165250000   
O      0.209454650000     0.396820425000     0.583239830000   
O      0.472213750000     0.193981380000     0.736011790000   
O      0.005912600000     0.225945300000     0.785092175000   
O      0.486583550000     0.236757830000     0.838082580000   
O      0.447869570000     0.357932250000     0.730925010000   
O      0.424069900000     0.356961900000     0.787673500000   
Zn     0.467300030000     0.681998340000     0.315110920000   
Zn     0.466458400000     0.654532650000     0.253765075000   
Zn     0.437120850000     0.948110350000     0.293916525000   
Zn     0.495638430000     0.894228850000     0.272882430000   
Zn     0.247108875000     0.909912020000     0.007266955000   
Zn     0.184745610000     0.931266070000     0.059948705000   
H      0.106158675000     0.601753540000     0.372360600000   
H      0.055169545000     0.591848330000     0.427028500000   
H      0.143742440000     0.566597985000     0.407933175000   
H      0.092767330000     0.556707120000     0.462611900000   
H      0.067275265000     0.519281175000     0.475226135000   
H      0.155703230000     0.536458560000     0.380336100000   
H      0.029383060000     0.554700205000     0.439331025000   
H      0.117833830000     0.571911240000     0.344457700000   
H      0.386128450000     0.744394975000     0.275451185000   
H      0.295533925000     0.846398325000     0.043804115000   
H      0.307380470000     0.785982280000     0.189768900000   
H      0.374287150000     0.804816950000     0.129482240000   
H      0.340923665000     0.810427250000     0.076745590000   
H      0.340737970000     0.780363470000     0.242509275000   
C      0.120572880000     0.894770050000     0.126195300000   
C      0.086035030000     0.932073350000     0.170444700000   
C      0.103984155000     0.912181000000     0.146187575000   
C      0.070406830000     0.947781475000     0.192266135000   
C      0.143016550000     0.874635600000     0.103116280000   
C      0.049359230000     0.963941450000     0.219343550000   
C      0.358677900000     0.955108200000     0.363735450000   
C      0.337685700000     0.909570575000     0.427438300000   
C      0.348205600000     0.934201700000     0.392949730000   
C      0.329432515000     0.887378550000     0.456389250000   
C      0.373406500000     0.980556575000     0.330345600000   
C      0.319085800000     0.858810700000     0.488878450000   
C      0.071382715000     0.519261655000     0.388507000000   
C      0.097807830000     0.994529215000     0.413560035000   
C      0.046282105000     0.583866315000     0.365787270000   
C      0.137138275000     0.998850050000     0.451866050000   
C      0.157114325000     0.981813730000     0.470589400000   
C      0.180675490000     0.961255550000     0.492506115000   
C      0.004416460000     0.626370600000     0.325480350000   
C      0.132779100000     0.549046685000     0.397073650000   
C      0.082082785000     0.539198940000     0.451469850000   
C      0.056599940000     0.563018700000     0.427344980000   
C      0.107314290000     0.572873740000     0.372958185000   
C      0.027086930000     0.603539405000     0.347386600000   
C      0.112908840000     0.519548280000     0.428933900000   
C      0.069772915000     0.559904620000     0.388068020000   
C      0.480930600000     0.592165725000     0.279662450000   
C      0.451385020000     0.994516820000     0.291297375000   
C      0.462640970000     0.528515475000     0.287069400000   
C      0.471322180000     0.557617735000     0.283214950000   
C      0.241350725000     0.892323435000     0.065756050000   
C      0.440317650000     0.698478370000     0.253495500000   
C      0.268972700000     0.872438100000     0.085457975000   
C      0.412694870000     0.718361125000     0.233793215000   
C      0.269693350000     0.876737350000     0.119149690000   
C      0.411977650000     0.714067475000     0.200099825000   
C      0.295958250000     0.856292425000     0.137838170000   
C      0.385713875000     0.734510200000     0.181408480000   
C      0.321048800000     0.831493230000     0.122884585000   
C      0.360620675000     0.759306430000     0.196364090000   
C      0.321342825000     0.829080580000     0.088560455000   
C      0.360321430000     0.761713115000     0.230692400000   
C      0.295463400000     0.849415150000     0.069941700000   
C      0.386201600000     0.741381100000     0.249311500000   
C      0.346445025000     0.806609600000     0.143032270000   
C      0.335222630000     0.784189650000     0.176218925000   
C      0.438029400000     0.840805620000     0.264094830000   
C      0.480657430000     0.739661530000     0.306749300000   
C      0.451295200000     0.803955900000     0.276740950000   
C      0.464393615000     0.774088980000     0.289754550000   
Cl     0.134173690000     0.970020350000     0.389427850000   
Cl     0.076780485000     0.958887815000     0.450978220000   
Cl     0.084521630000     0.516505760000     0.342359950000   
Cl     0.027129005000     0.505350740000     0.403898715000   
Cl     0.239135685000     0.908869775000     0.137356385000   
Cl     0.442540615000     0.681941000000     0.181889010000   
Cl     0.383396300000     0.727696775000     0.140254660000   
Cl     0.298278450000     0.863108785000     0.178989930000   
O      0.035194590000     0.996583450000     0.209423630000   
O      0.041474020000     0.943297325000     0.251484700000   
O      0.147543670000     0.890852000000     0.068473315000   
O      0.143319560000     0.839760250000     0.114935965000   
O      0.291379275000     0.864786415000     0.012130560000   
O      0.334952450000     0.827339620000     0.490520150000   
O      0.355336600000     0.512221155000     0.322245030000   
O      0.391737900000     0.967249000000     0.304699600000   
O      0.211378350000     0.949412585000     0.477149550000   
O      0.170258900000     0.953990500000     0.027132750000   
O      0.014814960000     0.633675500000     0.290874125000   
O      0.473729285000     0.638249600000     0.340816300000   
O      0.469741015000     0.964650200000     0.304752150000   
O      0.469459200000     0.605290295000     0.306599750000   
O      0.423357150000     0.994563135000     0.280555935000   
O      0.001464365000     0.609064765000     0.250261935000   
O      0.249213590000     0.905184985000     0.031086380000   
O      0.432454750000     0.685616865000     0.288165250000   
O      0.209454650000     0.896820425000     0.083239830000   
O      0.472213750000     0.693981380000     0.236011790000   
O      0.005912600000     0.725945300000     0.285092175000   
O      0.486583550000     0.736757830000     0.338082580000   
O      0.447869570000     0.857932250000     0.230925010000   
O      0.424069900000     0.856961900000     0.287673500000   
Zn     0.467300030000     0.681998340000     0.815110920000   
Zn     0.466458400000     0.654532650000     0.753765075000   
Zn     0.437120850000     0.948110350000     0.793916525000   
Zn     0.495638430000     0.894228850000     0.772882430000   
Zn     0.247108875000     0.909912020000     0.507266955000   
Zn     0.184745610000     0.931266070000     0.559948705000   
H      0.106158675000     0.601753540000     0.872360600000   
H      0.055169545000     0.591848330000     0.927028500000   
H      0.143742440000     0.566597985000     0.907933175000   
H      0.092767330000     0.556707120000     0.962611900000   
H      0.067275265000     0.519281175000     0.975226135000   
H      0.155703230000     0.536458560000     0.880336100000   
H      0.029383060000     0.554700205000     0.939331025000   
H      0.117833830000     0.571911240000     0.844457700000   
H      0.386128450000     0.744394975000     0.775451185000   
H      0.295533925000     0.846398325000     0.543804115000   
H      0.307380470000     0.785982280000     0.689768900000   
H      0.374287150000     0.804816950000     0.629482240000   
H      0.340923665000     0.810427250000     0.576745590000   
H      0.340737970000     0.780363470000     0.742509275000   
C      0.120572880000     0.894770050000     0.626195300000   
C      0.086035030000     0.932073350000     0.670444700000   
C      0.103984155000     0.912181000000     0.646187575000   
C      0.070406830000     0.947781475000     0.692266135000   
C      0.143016550000     0.874635600000     0.603116280000   
C      0.049359230000     0.963941450000     0.719343550000   
C      0.358677900000     0.955108200000     0.863735450000   
C      0.337685700000     0.909570575000     0.927438300000   
C      0.348205600000     0.934201700000     0.892949730000   
C      0.329432515000     0.887378550000     0.956389250000   
C      0.373406500000     0.980556575000     0.830345600000   
C      0.319085800000     0.858810700000     0.988878450000   
C      0.071382715000     0.519261655000     0.888507000000   
C      0.097807830000     0.994529215000     0.913560035000   
C      0.046282105000     0.583866315000     0.865787270000   
C      0.137138275000     0.998850050000     0.951866050000   
C      0.157114325000     0.981813730000     0.970589400000   
C      0.180675490000     0.961255550000     0.992506115000   
C      0.004416460000     0.626370600000     0.825480350000   
C      0.132779100000     0.549046685000     0.897073650000   
C      0.082082785000     0.539198940000     0.951469850000   
C      0.056599940000     0.563018700000     0.927344980000   
C      0.107314290000     0.572873740000     0.872958185000   
C      0.027086930000     0.603539405000     0.847386600000   
C      0.112908840000     0.519548280000     0.928933900000   
C      0.069772915000     0.559904620000     0.888068020000   
C      0.480930600000     0.592165725000     0.779662450000   
C      0.451385020000     0.994516820000     0.791297375000   
C      0.462640970000     0.528515475000     0.787069400000   
C      0.471322180000     0.557617735000     0.783214950000   
C      0.241350725000     0.892323435000     0.565756050000   
C      0.440317650000     0.698478370000     0.753495500000   
C      0.268972700000     0.872438100000     0.585457975000   
C      0.412694870000     0.718361125000     0.733793215000   
C      0.269693350000     0.876737350000     0.619149690000   
C      0.411977650000     0.714067475000     0.700099825000   
C      0.295958250000     0.856292425000     0.637838170000   
C      0.385713875000     0.734510200000     0.681408480000   
C      0.321048800000     0.831493230000     0.622884585000   
C      0.360620675000     0.759306430000     0.696364090000   
C      0.321342825000     0.829080580000     0.588560455000   
C      0.360321430000     0.761713115000     0.730692400000   
C      0.295463400000     0.849415150000     0.569941700000   
C      0.386201600000     0.741381100000     0.749311500000   
C      0.346445025000     0.806609600000     0.643032270000   
C      0.335222630000     0.784189650000     0.676218925000   
C      0.438029400000     0.840805620000     0.764094830000   
C      0.480657430000     0.739661530000     0.806749300000   
C      0.451295200000     0.803955900000     0.776740950000   
C      0.464393615000     0.774088980000     0.789754550000   
Cl     0.134173690000     0.970020350000     0.889427850000   
Cl     0.076780485000     0.958887815000     0.950978220000   
Cl     0.084521630000     0.516505760000     0.842359950000   
Cl     0.027129005000     0.505350740000     0.903898715000   
Cl     0.239135685000     0.908869775000     0.637356385000   
Cl     0.442540615000     0.681941000000     0.681889010000   
Cl     0.383396300000     0.727696775000     0.640254660000   
Cl     0.298278450000     0.863108785000     0.678989930000   
O      0.035194590000     0.996583450000     0.709423630000   
O      0.041474020000     0.943297325000     0.751484700000   
O      0.147543670000     0.890852000000     0.568473315000   
O      0.143319560000     0.839760250000     0.614935965000   
O      0.291379275000     0.864786415000     0.512130560000   
O      0.334952450000     0.827339620000     0.990520150000   
O      0.355336600000     0.512221155000     0.822245030000   
O      0.391737900000     0.967249000000     0.804699600000   
O      0.211378350000     0.949412585000     0.977149550000   
O      0.170258900000     0.953990500000     0.527132750000   
O      0.014814960000     0.633675500000     0.790874125000   
O      0.473729285000     0.638249600000     0.840816300000   
O      0.469741015000     0.964650200000     0.804752150000   
O      0.469459200000     0.605290295000     0.806599750000   
O      0.423357150000     0.994563135000     0.780555935000   
O      0.001464365000     0.609064765000     0.750261935000   
O      0.249213590000     0.905184985000     0.531086380000   
O      0.432454750000     0.685616865000     0.788165250000   
O      0.209454650000     0.896820425000     0.583239830000   
O      0.472213750000     0.693981380000     0.736011790000   
O      0.005912600000     0.725945300000     0.785092175000   
O      0.486583550000     0.736757830000     0.838082580000   
O      0.447869570000     0.857932250000     0.730925010000   
O      0.424069900000     0.856961900000     0.787673500000   
Zn     0.967300030000     0.181998340000     0.315110920000   
Zn     0.966458400000     0.154532650000     0.253765075000   
Zn     0.937120850000     0.448110350000     0.293916525000   
Zn     0.995638430000     0.394228850000     0.272882430000   
Zn     0.747108875000     0.409912020000     0.007266955000   
Zn     0.684745610000     0.431266070000     0.059948705000   
H      0.606158675000     0.101753540000     0.372360600000   
H      0.555169545000     0.091848330000     0.427028500000   
H      0.643742440000     0.066597985000     0.407933175000   
H      0.592767330000     0.056707120000     0.462611900000   
H      0.567275265000     0.019281175000     0.475226135000   
H      0.655703230000     0.036458560000     0.380336100000   
H      0.529383060000     0.054700205000     0.439331025000   
H      0.617833830000     0.071911240000     0.344457700000   
H      0.886128450000     0.244394975000     0.275451185000   
H      0.795533925000     0.346398325000     0.043804115000   
H      0.807380470000     0.285982280000     0.189768900000   
H      0.874287150000     0.304816950000     0.129482240000   
H      0.840923665000     0.310427250000     0.076745590000   
H      0.840737970000     0.280363470000     0.242509275000   
C      0.620572880000     0.394770050000     0.126195300000   
C      0.586035030000     0.432073350000     0.170444700000   
C      0.603984155000     0.412181000000     0.146187575000   
C      0.570406830000     0.447781475000     0.192266135000   
C      0.643016550000     0.374635600000     0.103116280000   
C      0.549359230000     0.463941450000     0.219343550000   
C      0.858677900000     0.455108200000     0.363735450000   
C      0.837685700000     0.409570575000     0.427438300000   
C      0.848205600000     0.434201700000     0.392949730000   
C      0.829432515000     0.387378550000     0.456389250000   
C      0.873406500000     0.480556575000     0.330345600000   
C      0.819085800000     0.358810700000     0.488878450000   
C      0.571382715000     0.019261655000     0.388507000000   
C      0.597807830000     0.494529215000     0.413560035000   
C      0.546282105000     0.083866315000     0.365787270000   
C      0.637138275000     0.498850050000     0.451866050000   
C      0.657114325000     0.481813730000     0.470589400000   
C      0.680675490000     0.461255550000     0.492506115000   
C      0.504416460000     0.126370600000     0.325480350000   
C      0.632779100000     0.049046685000     0.397073650000   
C      0.582082785000     0.039198940000     0.451469850000   
C      0.556599940000     0.063018700000     0.427344980000   
C      0.607314290000     0.072873740000     0.372958185000   
C      0.527086930000     0.103539405000     0.347386600000   
C      0.612908840000     0.019548280000     0.428933900000   
C      0.569772915000     0.059904620000     0.388068020000   
C      0.980930600000     0.092165725000     0.279662450000   
C      0.951385020000     0.494516820000     0.291297375000   
C      0.962640970000     0.028515475000     0.287069400000   
C      0.971322180000     0.057617735000     0.283214950000   
C      0.741350725000     0.392323435000     0.065756050000   
C      0.940317650000     0.198478370000     0.253495500000   
C      0.768972700000     0.372438100000     0.085457975000   
C      0.912694870000     0.218361125000     0.233793215000   
C      0.769693350000     0.376737350000     0.119149690000   
C      0.911977650000     0.214067475000     0.200099825000   
C      0.795958250000     0.356292425000     0.137838170000   
C      0.885713875000     0.234510200000     0.181408480000   
C      0.821048800000     0.331493230000     0.122884585000   
C      0.860620675000     0.259306430000     0.196364090000   
C      0.821342825000     0.329080580000     0.088560455000   
C      0.860321430000     0.261713115000     0.230692400000   
C      0.795463400000     0.349415150000     0.069941700000   
C      0.886201600000     0.241381100000     0.249311500000   