%BLOCK LATTICE_CART
ang    # angstrom units
  11.124910000000    0.000000000000     0.000000000000   
 -0.184461710523     14.024826984992    0.000000000000   
 -0.145976244843    -0.232134284078     16.540967151521  
%ENDBLOCK LATTICE_CART

%BLOCK POSITIONS_FRAC
Cu     0.223037360000     0.489720285000     0.448895635000   
Cu     0.127087610000     0.429162325000     0.445554675000   
H      0.335488550000     0.366751050000     0.024533930000   
H      0.434988750000     0.322191250000     0.481655100000   
H      0.230000185000     0.266982650000     0.335784900000   
H      0.098514445000     0.147306325000     0.050024270000   
H      0.321119250000     0.130125880000     0.318719450000   
H      0.109961700000     0.286370350000     0.393578600000   
H      0.013970200000     0.282417200000     0.067323090000   
H      0.291491330000     0.065879200000     0.354467035000   
H      0.170927480000     0.085805655000     0.448900750000   
H      0.497776850000     0.465709250000     0.233900040000   
H      0.498127100000     0.004378260000     0.135679185000   
H      0.225081475000     0.398776550000     0.275043280000   
H      0.269805430000     0.487503470000     0.223658485000   
H      0.090441010000     0.003846405000     0.109500175000   
H      0.304210720000     0.498995700000     0.098139735000   
H      0.044109895000     0.460709550000     0.332875200000   
H      0.339492850000     0.001743615000     0.168814825000   
C      0.477035400000     0.440612550000     0.425610275000   
C      0.359978825000     0.481244650000     0.449134350000   
C      0.390582085000     0.446161950000     0.466793000000   
C      0.428517520000     0.418175670000     0.441093685000   
C      0.027510105000     0.415406750000     0.409872085000   
C      0.310089550000     0.003011825000     0.468165650000   
C      0.266192525000     0.139337800000     0.363643300000   
C      0.266568500000     0.090752765000     0.372842370000   
C      0.200545935000     0.102550810000     0.427539975000   
C      0.203502520000     0.152244360000     0.423035450000   
C      0.230774330000     0.170132935000     0.387580930000   
C      0.176641720000     0.184003800000     0.451155485000   
C      0.166084150000     0.231579720000     0.439263300000   
C      0.178294080000     0.244432225000     0.398632170000   
C      0.217557385000     0.216742550000     0.375251050000   
C      0.160961360000     0.170281515000     0.490931700000   
C      0.122184010000     0.198757300000     0.013989450000   
C      0.112566040000     0.246345100000     0.002465905000   
C      0.142194465000     0.264367430000     0.467991470000   
C      0.077279200000     0.277153970000     0.026203395000   
C      0.080470040000     0.326496275000     0.018853070000   
C      0.149479670000     0.314565300000     0.465237915000   
C      0.196663320000     0.335826950000     0.441483650000   
C      0.049278845000     0.359336020000     0.044908585000   
C      0.191520600000     0.131884890000     0.011245965000   
C      0.190877780000     0.479666530000     0.072320275000   
C      0.045524160000     0.460452320000     0.238368150000   
C      0.128161100000     0.440360800000     0.282826800000   
C      0.271869350000     0.495664650000     0.122259080000   
C      0.292236700000     0.495939950000     0.162084950000   
C      0.252151800000     0.486441015000     0.193134010000   
C      0.190354315000     0.478142380000     0.184672565000   
C      0.168902190000     0.486549600000     0.145392925000   
C      0.148821500000     0.463592975000     0.214247585000   
C      0.086256815000     0.469510000000     0.207235830000   
C      0.065468950000     0.485234650000     0.169599010000   
C      0.106842680000     0.492176115000     0.138593050000   
C      0.155530525000     0.440958700000     0.322916715000   
C      0.167568700000     0.441784000000     0.250031980000   
C      0.066117115000     0.449469800000     0.276891680000   
C      0.210372390000     0.489640800000     0.113725575000   
S      0.387948215000     0.431977300000     0.019065260000   
S      0.402322900000     0.359195920000     0.429386465000   
N      0.232254150000     0.073755100000     0.403136550000   
N      0.215974550000     0.101323375000     0.027473150000   
N      0.117419960000     0.343774765000     0.489604900000   
N      0.234629750000     0.352617920000     0.422417970000   
N      0.024100320000     0.385104600000     0.066293600000   
O      0.278875000000     0.471258430000     0.486061700000   
O      0.441325215000     0.402541400000     0.030026615000   
O      0.389046000000     0.476976750000     0.044259430000   
O      0.325108620000     0.400552570000     0.029422760000   
O      0.338736450000     0.352887850000     0.443267735000   
O      0.404341100000     0.350448130000     0.384497800000   
O      0.444585920000     0.318599500000     0.452641900000   
O      0.021089730000     0.371259420000     0.405545050000   
O      0.078745545000     0.436648665000     0.410610525000   
O      0.318716350000     0.044426440000     0.486273850000   
O      0.237374290000     0.232386900000     0.338151000000   
O      0.099129320000     0.182631030000     0.050136150000   
O      0.298873050000     0.156658190000     0.331563175000   
O      0.148566185000     0.280969500000     0.379619865000   
O      0.041195320000     0.258158500000     0.056089640000   
O      0.219814600000     0.000319960000     0.043174830000   
O      0.223692200000     0.421111100000     0.252110630000   
O      0.024413165000     0.449662180000     0.307522180000   
O      0.146723050000     0.448855430000     0.066422155000   
O      0.202487320000     0.469014170000     0.328470000000   
O      0.129395785000     0.417549670000     0.351717350000   
O      0.004826745000     0.492990165000     0.163587450000   
F      0.366035000000     0.489353120000     0.409078750000   
F      0.486473050000     0.487618685000     0.433716415000   
Cu     0.223037360000     0.489720285000     0.948895635000   
Cu     0.127087610000     0.429162325000     0.945554675000   
H      0.335488550000     0.366751050000     0.524533930000   
H      0.434988750000     0.322191250000     0.981655100000   
H      0.230000185000     0.266982650000     0.835784900000   
H      0.098514445000     0.147306325000     0.550024270000   
H      0.321119250000     0.130125880000     0.818719450000   
H      0.109961700000     0.286370350000     0.893578600000   
H      0.013970200000     0.282417200000     0.567323090000   
H      0.291491330000     0.065879200000     0.854467035000   
H      0.170927480000     0.085805655000     0.948900750000   
H      0.497776850000     0.465709250000     0.733900040000   
H      0.498127100000     0.004378260000     0.635679185000   
H      0.225081475000     0.398776550000     0.775043280000   
H      0.269805430000     0.487503470000     0.723658485000   
H      0.090441010000     0.003846405000     0.609500175000   
H      0.304210720000     0.498995700000     0.598139735000   
H      0.044109895000     0.460709550000     0.832875200000   
H      0.339492850000     0.001743615000     0.668814825000   
C      0.477035400000     0.440612550000     0.925610275000   
C      0.359978825000     0.481244650000     0.949134350000   
C      0.390582085000     0.446161950000     0.966793000000   
C      0.428517520000     0.418175670000     0.941093685000   
C      0.027510105000     0.415406750000     0.909872085000   
C      0.310089550000     0.003011825000     0.968165650000   
C      0.266192525000     0.139337800000     0.863643300000   
C      0.266568500000     0.090752765000     0.872842370000   
C      0.200545935000     0.102550810000     0.927539975000   
C      0.203502520000     0.152244360000     0.923035450000   
C      0.230774330000     0.170132935000     0.887580930000   
C      0.176641720000     0.184003800000     0.951155485000   
C      0.166084150000     0.231579720000     0.939263300000   
C      0.178294080000     0.244432225000     0.898632170000   
C      0.217557385000     0.216742550000     0.875251050000   
C      0.160961360000     0.170281515000     0.990931700000   
C      0.122184010000     0.198757300000     0.513989450000   
C      0.112566040000     0.246345100000     0.502465905000   
C      0.142194465000     0.264367430000     0.967991470000   
C      0.077279200000     0.277153970000     0.526203395000   
C      0.080470040000     0.326496275000     0.518853070000   
C      0.149479670000     0.314565300000     0.965237915000   
C      0.196663320000     0.335826950000     0.941483650000   
C      0.049278845000     0.359336020000     0.544908585000   
C      0.191520600000     0.131884890000     0.511245965000   
C      0.190877780000     0.479666530000     0.572320275000   
C      0.045524160000     0.460452320000     0.738368150000   
C      0.128161100000     0.440360800000     0.782826800000   
C      0.271869350000     0.495664650000     0.622259080000   
C      0.292236700000     0.495939950000     0.662084950000   
C      0.252151800000     0.486441015000     0.693134010000   
C      0.190354315000     0.478142380000     0.684672565000   
C      0.168902190000     0.486549600000     0.645392925000   
C      0.148821500000     0.463592975000     0.714247585000   
C      0.086256815000     0.469510000000     0.707235830000   
C      0.065468950000     0.485234650000     0.669599010000   
C      0.106842680000     0.492176115000     0.638593050000   
C      0.155530525000     0.440958700000     0.822916715000   
C      0.167568700000     0.441784000000     0.750031980000   
C      0.066117115000     0.449469800000     0.776891680000   
C      0.210372390000     0.489640800000     0.613725575000   
S      0.387948215000     0.431977300000     0.519065260000   
S      0.402322900000     0.359195920000     0.929386465000   
N      0.232254150000     0.073755100000     0.903136550000   
N      0.215974550000     0.101323375000     0.527473150000   
N      0.117419960000     0.343774765000     0.989604900000   
N      0.234629750000     0.352617920000     0.922417970000   
N      0.024100320000     0.385104600000     0.566293600000   
O      0.278875000000     0.471258430000     0.986061700000   
O      0.441325215000     0.402541400000     0.530026615000   
O      0.389046000000     0.476976750000     0.544259430000   
O      0.325108620000     0.400552570000     0.529422760000   
O      0.338736450000     0.352887850000     0.943267735000   
O      0.404341100000     0.350448130000     0.884497800000   
O      0.444585920000     0.318599500000     0.952641900000   
O      0.021089730000     0.371259420000     0.905545050000   
O      0.078745545000     0.436648665000     0.910610525000   
O      0.318716350000     0.044426440000     0.986273850000   
O      0.237374290000     0.232386900000     0.838151000000   
O      0.099129320000     0.182631030000     0.550136150000   
O      0.298873050000     0.156658190000     0.831563175000   
O      0.148566185000     0.280969500000     0.879619865000   
O      0.041195320000     0.258158500000     0.556089640000   
O      0.219814600000     0.000319960000     0.543174830000   
O      0.223692200000     0.421111100000     0.752110630000   
O      0.024413165000     0.449662180000     0.807522180000   
O      0.146723050000     0.448855430000     0.566422155000   
O      0.202487320000     0.469014170000     0.828470000000   
O      0.129395785000     0.417549670000     0.851717350000   
O      0.004826745000     0.492990165000     0.663587450000   
F      0.366035000000     0.489353120000     0.909078750000   
F      0.486473050000     0.487618685000     0.933716415000   
Cu     0.223037360000     0.989720285000     0.448895635000   
Cu     0.127087610000     0.929162325000     0.445554675000   
H      0.335488550000     0.866751050000     0.024533930000   
H      0.434988750000     0.822191250000     0.481655100000   
H      0.230000185000     0.766982650000     0.335784900000   
H      0.098514445000     0.647306325000     0.050024270000   
H      0.321119250000     0.630125880000     0.318719450000   
H      0.109961700000     0.786370350000     0.393578600000   
H      0.013970200000     0.782417200000     0.067323090000   
H      0.291491330000     0.565879200000     0.354467035000   
H      0.170927480000     0.585805655000     0.448900750000   
H      0.497776850000     0.965709250000     0.233900040000   
H      0.498127100000     0.504378260000     0.135679185000   
H      0.225081475000     0.898776550000     0.275043280000   
H      0.269805430000     0.987503470000     0.223658485000   
H      0.090441010000     0.503846405000     0.109500175000   
H      0.304210720000     0.998995700000     0.098139735000   
H      0.044109895000     0.960709550000     0.332875200000   
H      0.339492850000     0.501743615000     0.168814825000   
C      0.477035400000     0.940612550000     0.425610275000   
C      0.359978825000     0.981244650000     0.449134350000   
C      0.390582085000     0.946161950000     0.466793000000   
C      0.428517520000     0.918175670000     0.441093685000   
C      0.027510105000     0.915406750000     0.409872085000   
C      0.310089550000     0.503011825000     0.468165650000   
C      0.266192525000     0.639337800000     0.363643300000   
C      0.266568500000     0.590752765000     0.372842370000   
C      0.200545935000     0.602550810000     0.427539975000   
C      0.203502520000     0.652244360000     0.423035450000   
C      0.230774330000     0.670132935000     0.387580930000   
C      0.176641720000     0.684003800000     0.451155485000   
C      0.166084150000     0.731579720000     0.439263300000   
C      0.178294080000     0.744432225000     0.398632170000   
C      0.217557385000     0.716742550000     0.375251050000   
C      0.160961360000     0.670281515000     0.490931700000   
C      0.122184010000     0.698757300000     0.013989450000   
C      0.112566040000     0.746345100000     0.002465905000   
C      0.142194465000     0.764367430000     0.467991470000   
C      0.077279200000     0.777153970000     0.026203395000   
C      0.080470040000     0.826496275000     0.018853070000   
C      0.149479670000     0.814565300000     0.465237915000   
C      0.196663320000     0.835826950000     0.441483650000   
C      0.049278845000     0.859336020000     0.044908585000   
C      0.191520600000     0.631884890000     0.011245965000   
C      0.190877780000     0.979666530000     0.072320275000   
C      0.045524160000     0.960452320000     0.238368150000   
C      0.128161100000     0.940360800000     0.282826800000   
C      0.271869350000     0.995664650000     0.122259080000   
C      0.292236700000     0.995939950000     0.162084950000   
C      0.252151800000     0.986441015000     0.193134010000   
C      0.190354315000     0.978142380000     0.184672565000   
C      0.168902190000     0.986549600000     0.145392925000   
C      0.148821500000     0.963592975000     0.214247585000   
C      0.086256815000     0.969510000000     0.207235830000   
C      0.065468950000     0.985234650000     0.169599010000   
C      0.106842680000     0.992176115000     0.138593050000   
C      0.155530525000     0.940958700000     0.322916715000   
C      0.167568700000     0.941784000000     0.250031980000   
C      0.066117115000     0.949469800000     0.276891680000   
C      0.210372390000     0.989640800000     0.113725575000   
S      0.387948215000     0.931977300000     0.019065260000   
S      0.402322900000     0.859195920000     0.429386465000   
N      0.232254150000     0.573755100000     0.403136550000   
N      0.215974550000     0.601323375000     0.027473150000   
N      0.117419960000     0.843774765000     0.489604900000   
N      0.234629750000     0.852617920000     0.422417970000   
N      0.024100320000     0.885104600000     0.066293600000   
O      0.278875000000     0.971258430000     0.486061700000   
O      0.441325215000     0.902541400000     0.030026615000   
O      0.389046000000     0.976976750000     0.044259430000   
O      0.325108620000     0.900552570000     0.029422760000   
O      0.338736450000     0.852887850000     0.443267735000   
O      0.404341100000     0.850448130000     0.384497800000   
O      0.444585920000     0.818599500000     0.452641900000   
O      0.021089730000     0.871259420000     0.405545050000   
O      0.078745545000     0.936648665000     0.410610525000   
O      0.318716350000     0.544426440000     0.486273850000   
O      0.237374290000     0.732386900000     0.338151000000   
O      0.099129320000     0.682631030000     0.050136150000   
O      0.298873050000     0.656658190000     0.331563175000   
O      0.148566185000     0.780969500000     0.379619865000   
O      0.041195320000     0.758158500000     0.056089640000   
O      0.219814600000     0.500319960000     0.043174830000   
O      0.223692200000     0.921111100000     0.252110630000   
O      0.024413165000     0.949662180000     0.307522180000   
O      0.146723050000     0.948855430000     0.066422155000   
O      0.202487320000     0.969014170000     0.328470000000   
O      0.129395785000     0.917549670000     0.351717350000   
O      0.004826745000     0.992990165000     0.163587450000   
F      0.366035000000     0.989353120000     0.409078750000   
F      0.486473050000     0.987618685000     0.433716415000   
Cu     0.223037360000     0.989720285000     0.948895635000   
Cu     0.127087610000     0.929162325000     0.945554675000   
H      0.335488550000     0.866751050000     0.524533930000   
H      0.434988750000     0.822191250000     0.981655100000   
H      0.230000185000     0.766982650000     0.835784900000   
H      0.098514445000     0.647306325000     0.550024270000   
H      0.321119250000     0.630125880000     0.818719450000   
H      0.109961700000     0.786370350000     0.893578600000   
H      0.013970200000     0.782417200000     0.567323090000   
H      0.291491330000     0.565879200000     0.854467035000   
H      0.170927480000     0.585805655000     0.948900750000   
H      0.497776850000     0.965709250000     0.733900040000   
H      0.498127100000     0.504378260000     0.635679185000   
H      0.225081475000     0.898776550000     0.775043280000   
H      0.269805430000     0.987503470000     0.723658485000   
H      0.090441010000     0.503846405000     0.609500175000   
H      0.304210720000     0.998995700000     0.598139735000   
H      0.044109895000     0.960709550000     0.832875200000   
H      0.339492850000     0.501743615000     0.668814825000   
C      0.477035400000     0.940612550000     0.925610275000   
C      0.359978825000     0.981244650000     0.949134350000   
C      0.390582085000     0.946161950000     0.966793000000   
C      0.428517520000     0.918175670000     0.941093685000   
C      0.027510105000     0.915406750000     0.909872085000   
C      0.310089550000     0.503011825000     0.968165650000   
C      0.266192525000     0.639337800000     0.863643300000   
C      0.266568500000     0.590752765000     0.872842370000   
C      0.200545935000     0.602550810000     0.927539975000   
C      0.203502520000     0.652244360000     0.923035450000   
C      0.230774330000     0.670132935000     0.887580930000   
C      0.176641720000     0.684003800000     0.951155485000   
C      0.166084150000     0.731579720000     0.939263300000   
C      0.178294080000     0.744432225000     0.898632170000   
C      0.217557385000     0.716742550000     0.875251050000   
C      0.160961360000     0.670281515000     0.990931700000   
C      0.122184010000     0.698757300000     0.513989450000   
C      0.112566040000     0.746345100000     0.502465905000   
C      0.142194465000     0.764367430000     0.967991470000   
C      0.077279200000     0.777153970000     0.526203395000   
C      0.080470040000     0.826496275000     0.518853070000   
C      0.149479670000     0.814565300000     0.965237915000   
C      0.196663320000     0.835826950000     0.941483650000   
C      0.049278845000     0.859336020000     0.544908585000   
C      0.191520600000     0.631884890000     0.511245965000   
C      0.190877780000     0.979666530000     0.572320275000   
C      0.045524160000     0.960452320000     0.738368150000   
C      0.128161100000     0.940360800000     0.782826800000   
C      0.271869350000     0.995664650000     0.622259080000   
C      0.292236700000     0.995939950000     0.662084950000   
C      0.252151800000     0.986441015000     0.693134010000   
C      0.190354315000     0.978142380000     0.684672565000   
C      0.168902190000     0.986549600000     0.645392925000   
C      0.148821500000     0.963592975000     0.714247585000   
C      0.086256815000     0.969510000000     0.707235830000   
C      0.065468950000     0.985234650000     0.669599010000   
C      0.106842680000     0.992176115000     0.638593050000   
C      0.155530525000     0.940958700000     0.822916715000   
C      0.167568700000     0.941784000000     0.750031980000   
C      0.066117115000     0.949469800000     0.776891680000   
C      0.210372390000     0.989640800000     0.613725575000   
S      0.387948215000     0.931977300000     0.519065260000   
S      0.402322900000     0.859195920000     0.929386465000   
N      0.232254150000     0.573755100000     0.903136550000   
N      0.215974550000     0.601323375000     0.527473150000   
N      0.117419960000     0.843774765000     0.989604900000   
N      0.234629750000     0.852617920000     0.922417970000   
N      0.024100320000     0.885104600000     0.566293600000   
O      0.278875000000     0.971258430000     0.986061700000   
O      0.441325215000     0.902541400000     0.530026615000   
O      0.389046000000     0.976976750000     0.544259430000   
O      0.325108620000     0.900552570000     0.529422760000   
O      0.338736450000     0.852887850000     0.943267735000   
O      0.404341100000     0.850448130000     0.884497800000   
O      0.444585920000     0.818599500000     0.952641900000   
O      0.021089730000     0.871259420000     0.905545050000   
O      0.078745545000     0.936648665000     0.910610525000   
O      0.318716350000     0.544426440000     0.986273850000   
O      0.237374290000     0.732386900000     0.838151000000   
O      0.099129320000     0.682631030000     0.550136150000   
O      0.298873050000     0.656658190000     0.831563175000   
O      0.148566185000     0.780969500000     0.879619865000   
O      0.041195320000     0.758158500000     0.556089640000   
O      0.219814600000     0.500319960000     0.543174830000   
O      0.223692200000     0.921111100000     0.752110630000   
O      0.024413165000     0.949662180000     0.807522180000   
O      0.146723050000     0.948855430000     0.566422155000   
O      0.202487320000     0.969014170000     0.828470000000   
O      0.129395785000     0.917549670000     0.851717350000   
O      0.004826745000     0.992990165000     0.663587450000   
F      0.366035000000     0.989353120000     0.909078750000   
F      0.486473050000     0.987618685000     0.933716415000   
Cu     0.723037360000     0.489720285000     0.448895635000   
Cu     0.627087610000     0.429162325000     0.445554675000   
H      0.835488550000     0.366751050000     0.024533930000   
H      0.934988750000     0.322191250000     0.481655100000   
H      0.730000185000     0.266982650000     0.335784900000   
H      0.598514445000     0.147306325000     0.050024270000   
H      0.821119250000     0.130125880000     0.318719450000   
H      0.609961700000     0.286370350000     0.393578600000   
H      0.513970200000     0.282417200000     0.067323090000   
H      0.791491330000     0.065879200000     0.354467035000   
H      0.670927480000     0.085805655000     0.448900750000   
H      0.997776850000     0.465709250000     0.233900040000   
H      0.998127100000     0.004378260000     0.135679185000   
H      0.725081475000     0.398776550000     0.275043280000   
H      0.769805430000     0.487503470000     0.223658485000   
H      0.590441010000     0.003846405000     0.109500175000   
H      0.804210720000     0.498995700000     0.098139735000   
H      0.544109895000     0.460709550000     0.332875200000   
H      0.839492850000     0.001743615000     0.168814825000   
C      0.977035400000     0.440612550000     0.425610275000   
C      0.859978825000     0.481244650000     0.449134350000   
C      0.890582085000     0.446161950000     0.466793000000   
C      0.928517520000     0.418175670000     0.441093685000   
C      0.527510105000     0.415406750000     0.409872085000   
C      0.810089550000     0.003011825000     0.468165650000   
C      0.766192525000     0.139337800000     0.363643300000   
C      0.766568500000     0.090752765000     0.372842370000   
C      0.700545935000     0.102550810000     0.427539975000   
C      0.703502520000     0.152244360000     0.423035450000   
C      0.730774330000     0.170132935000     0.387580930000   
C      0.676641720000     0.184003800000     0.451155485000   
C      0.666084150000     0.231579720000     0.439263300000   
C      0.678294080000     0.244432225000     0.398632170000   
C      0.717557385000     0.216742550000     0.375251050000   
C      0.660961360000     0.170281515000     0.490931700000   
C      0.622184010000     0.198757300000     0.013989450000   
C      0.612566040000     0.246345100000     0.002465905000   
C      0.642194465000     0.264367430000     0.467991470000   
C      0.577279200000     0.277153970000     0.026203395000   
C      0.580470040000     0.326496275000     0.018853070000   
C      0.649479670000     0.314565300000     0.465237915000   
C      0.696663320000     0.335826950000     0.441483650000   
C      0.549278845000     0.359336020000     0.044908585000   
C      0.691520600000     0.131884890000     0.011245965000   
C      0.690877780000     0.479666530000     0.072320275000   
C      0.545524160000     0.460452320000     0.238368150000   
C      0.628161100000     0.440360800000     0.282826800000   
C      0.771869350000     0.495664650000     0.122259080000   
C      0.792236700000     0.495939950000     0.162084950000   
C      0.752151800000     0.486441015000     0.193134010000   
C      0.690354315000     0.478142380000     0.184672565000   
C      0.668902190000     0.486549600000     0.145392925000   
C      0.648821500000     0.463592975000     0.214247585000   
C      0.586256815000     0.469510000000     0.207235830000   
C      0.565468950000     0.485234650000     0.169599010000   
C      0.606842680000     0.492176115000     0.138593050000   
C      0.655530525000     0.440958700000     0.322916715000   
C      0.667568700000     0.441784000000     0.250031980000   
C      0.566117115000     0.449469800000     0.276891680000   
C      0.710372390000     0.489640800000     0.113725575000   
S      0.887948215000     0.431977300000     0.019065260000   
S      0.902322900000     0.359195920000     0.429386465000   
N      0.732254150000     0.073755100000     0.403136550000   
N      0.715974550000     0.101323375000     0.027473150000   
N      0.617419960000     0.343774765000     0.489604900000   
N      0.734629750000     0.352617920000     0.422417970000   
N      0.524100320000     0.385104600000     0.066293600000   
O      0.778875000000     0.471258430000     0.486061700000   
O      0.941325215000     0.402541400000     0.030026615000   
O      0.889046000000     0.476976750000     0.044259430000   
O      0.825108620000     0.400552570000     0.029422760000   
O      0.838736450000     0.352887850000     0.443267735000   
O      0.904341100000     0.350448130000     0.384497800000   
O      0.944585920000     0.318599500000     0.452641900000   
O      0.521089730000     0.371259420000     0.405545050000   
O      0.578745545000     0.436648665000     0.410610525000   
O      0.818716350000     0.044426440000     0.486273850000   
O      0.737374290000     0.232386900000     0.338151000000   
O      0.599129320000     0.182631030000     0.050136150000   
O      0.798873050000     0.156658190000     0.331563175000   
O      0.648566185000     0.280969500000     0.379619865000   
O      0.541195320000     0.258158500000     0.056089640000   
O      0.719814600000     0.000319960000     0.043174830000   
O      0.723692200000     0.421111100000     0.252110630000   
O      0.524413165000     0.449662180000     0.307522180000   
O      0.646723050000     0.448855430000     0.066422155000   
O      0.702487320000     0.469014170000     0.328470000000   
O      0.629395785000     0.417549670000     0.351717350000   
O      0.504826745000     0.492990165000     0.163587450000   
F      0.866035000000     0.489353120000     0.409078750000   
F      0.986473050000     0.487618685000     0.433716415000   
Cu     0.723037360000     0.489720285000     0.948895635000   
Cu     0.627087610000     0.429162325000     0.945554675000   
H      0.835488550000     0.366751050000     0.524533930000   
H      0.934988750000     0.322191250000     0.981655100000   
H      0.730000185000     0.266982650000     0.835784900000   
H      0.598514445000     0.147306325000     0.550024270000   
H      0.821119250000     0.130125880000     0.818719450000   
H      0.609961700000     0.286370350000     0.893578600000   
H      0.513970200000     0.282417200000     0.567323090000   
H      0.791491330000     0.065879200000     0.854467035000   
H      0.670927480000     0.085805655000     0.948900750000   
H      0.997776850000     0.465709250000     0.733900040000   
H      0.998127100000     0.004378260000     0.635679185000   
H      0.725081475000     0.398776550000     0.775043280000   
H      0.769805430000     0.487503470000     0.723658485000   
H      0.590441010000     0.003846405000     0.609500175000   
H      0.804210720000     0.498995700000     0.598139735000   