%BLOCK LATTICE_CART
ang    # angstrom units
  16.710550000000    0.000000000000     0.000000000000   
  2.575699445156     16.757365952733    0.000000000000   
 -0.682687342509    -0.296986669975     21.969899472012  
%ENDBLOCK LATTICE_CART

%BLOCK POSITIONS_FRAC
Cu     0.203371300000     0.453339935000     0.142923085000   
Cu     0.142318025000     0.412366480000     0.130479320000   
Cu     0.405782850000     0.149800630000     0.129751100000   
Cu     0.433328270000     0.218109875000     0.143644365000   
H      0.233123170000     0.298999580000     0.160194650000   
H      0.323561350000     0.294081400000     0.083355770000   
H      0.298431950000     0.405985650000     0.211932480000   
H      0.256156200000     0.389564485000     0.193484950000   
H      0.282065750000     0.427997150000     0.176803335000   
H      0.241848990000     0.239431710000     0.184088050000   
H      0.280179750000     0.196453540000     0.177390740000   
H      0.234859870000     0.204442650000     0.154007630000   
H      0.356694550000     0.416092600000     0.114205495000   
H      0.342640500000     0.421184780000     0.153848050000   
H      0.313725400000     0.449805915000     0.125305175000   
H      0.392120420000     0.286179425000     0.088207625000   
H      0.421324600000     0.311641250000     0.116132675000   
H      0.407985570000     0.332170600000     0.079809180000   
H      0.384489400000     0.376411885000     0.182078150000   
H      0.398557215000     0.372616750000     0.142106620000   
H      0.427835250000     0.345028950000     0.169733585000   
H      0.327261565000     0.311628000000     0.203746975000   
H      0.371408600000     0.273374915000     0.197171150000   
H      0.338977650000     0.270347775000     0.227648365000   
H      0.239984500000     0.302517535000     0.051166675000   
H      0.203791230000     0.342951750000     0.066601365000   
H      0.191620635000     0.293120475000     0.063029475000   
H      0.264807580000     0.321438370000     0.185236110000   
H      0.271387250000     0.342204000000     0.087905550000   
H      0.498656800000     0.196958230000     0.333580650000   
H      0.010017750000     0.230989130000     0.381487800000   
H      0.343118800000     0.171537750000     0.437397630000   
H      0.331767975000     0.137502535000     0.389502200000   
H      0.448286535000     0.310615900000     0.462679850000   
H      0.461465600000     0.344777700000     0.010693195000   
H      0.452409180000     0.237453415000     0.059732260000   
H      0.441517700000     0.202758600000     0.011478665000   
H      0.393497700000     0.057863705000     0.308322250000   
H      0.380320670000     0.023682665000     0.260316730000   
H      0.389402100000     0.130980330000     0.211249620000   
H      0.400277700000     0.165693430000     0.259487120000   
H      0.457789800000     0.219810875000     0.137951075000   
H      0.376563650000     0.133330835000     0.124035650000   
H      0.217471675000     0.480422675000     0.117894470000   
H      0.077997515000     0.452902700000     0.132319540000   
H      0.079933120000     0.155745750000     0.146793850000   
H      0.042664945000     0.129666520000     0.162030160000   
H      0.043140180000     0.220309465000     0.169648810000   
H      0.009925250000     0.190807730000     0.187171740000   
H      0.069258660000     0.151940480000     0.214815215000   
H      0.066255295000     0.204738850000     0.222734170000   
H      0.102968950000     0.180732350000     0.196563930000   
H      0.442202300000     0.033762340000     0.076036670000   
H      0.459593475000     0.079961860000     0.069563950000   
H      0.369951300000     0.067082645000     0.072676480000   
H      0.386638880000     0.114003995000     0.065399885000   
H      0.420454325000     0.084556385000     0.018334210000   
H      0.366979950000     0.081578890000     0.017447940000   
H      0.403082670000     0.037604935000     0.025657930000   
H      0.192277460000     0.088078760000     0.126859410000   
H      0.209136485000     0.041157810000     0.143910215000   
H      0.125567390000     0.093181545000     0.153281780000   
H      0.144192050000     0.047391435000     0.172661750000   
H      0.201333120000     0.078603210000     0.195941565000   
H      0.152574480000     0.106099900000     0.205186935000   
H      0.182214915000     0.124824735000     0.176694500000   
H      0.106948200000     0.344009150000     0.125389400000   
H      0.138960240000     0.363389970000     0.099260820000   
H      0.088627345000     0.390006950000     0.107052080000   
H      0.162358940000     0.349955680000     0.432528950000   
H      0.137676420000     0.338767650000     0.380985450000   
H      0.181490630000     0.018231390000     0.340134380000   
H      0.206180515000     0.029411020000     0.391666400000   
H      0.063327100000     0.397590130000     0.294762350000   
H      0.038779415000     0.384583980000     0.243018165000   
H      0.149936585000     0.412454425000     0.207304015000   
H      0.175281910000     0.423228770000     0.259242980000   
H      0.280543250000     0.470592825000     0.477878950000   
H      0.305111170000     0.483600200000     0.029617550000   
H      0.193979220000     0.455705800000     0.065361200000   
H      0.168611540000     0.444943150000     0.013436735000   
H      0.444712430000     0.364188435000     0.141938375000   
H      0.142318220000     0.255582900000     0.110096425000   
H      0.188555135000     0.094099545000     0.140338850000   
H      0.400803300000     0.024553965000     0.160791950000   
C      0.230154260000     0.369625600000     0.136925740000   
C      0.361990125000     0.248275370000     0.133248465000   
C      0.307287600000     0.358145625000     0.143927125000   
C      0.344687880000     0.325145650000     0.136433215000   
C      0.263692400000     0.308160125000     0.162132550000   
C      0.267630050000     0.318225235000     0.104323290000   
C      0.266715950000     0.338808150000     0.137071865000   
C      0.285530550000     0.399497250000     0.189172715000   
C      0.328317435000     0.281975985000     0.132945600000   
C      0.257719550000     0.219713100000     0.166351230000   
C      0.331228225000     0.420035600000     0.130085675000   
C      0.396909150000     0.315256150000     0.098340340000   
C      0.396354230000     0.356229700000     0.163256700000   
C      0.339311870000     0.279761100000     0.203642950000   
C      0.216331570000     0.310758350000     0.068385050000   
C      0.297205865000     0.271701100000     0.158071475000   
C      0.304722665000     0.284961550000     0.101409150000   
C      0.375870525000     0.053877880000     0.202798115000   
C      0.377778900000     0.134782360000     0.339456080000   
C      0.437582650000     0.154523120000     0.320083400000   
C      0.444433930000     0.174934240000     0.347549380000   
C      0.417576075000     0.174313025000     0.371506600000   
C      0.384094600000     0.153891220000     0.367571250000   
C      0.477626500000     0.195689125000     0.351664125000   
C      0.484160050000     0.215270815000     0.379229550000   
C      0.457685650000     0.214601900000     0.403413200000   
C      0.424208800000     0.194174300000     0.399472650000   
C      0.397337050000     0.193567620000     0.423434150000   
C      0.364148230000     0.172805535000     0.419314950000   
C      0.357613830000     0.153222515000     0.391750365000   
C      0.464008800000     0.233699440000     0.431531130000   
C      0.404185700000     0.213971750000     0.450891100000   
C      0.449592100000     0.294285100000     0.483715650000   
C      0.456966400000     0.313835680000     0.011207400000   
C      0.457886800000     0.293858650000     0.039045990000   
C      0.451597950000     0.253759600000     0.038705585000   
C      0.445247050000     0.233918400000     0.011134205000   
C      0.444001550000     0.253963530000     0.483280600000   
C      0.392189385000     0.074187525000     0.287277450000   
C      0.384823500000     0.054629940000     0.259799125000   
C      0.383914300000     0.074585510000     0.231947275000   
C      0.390210480000     0.114682635000     0.232279880000   
C      0.396555650000     0.134537800000     0.259846865000   
C      0.397787200000     0.114507220000     0.287704700000   
C      0.465924400000     0.314557015000     0.068201065000   
C      0.412941725000     0.180325760000     0.132275075000   
C      0.078756185000     0.029459720000     0.119208200000   
C      0.013549035000     0.087802520000     0.118192365000   
C      0.154397830000     0.005943615000     0.118468290000   
C      0.187006350000     0.474651900000     0.121618590000   
C      0.180633560000     0.436271600000     0.129688785000   
C      0.140676735000     0.428319500000     0.132437885000   
C      0.108295300000     0.459291250000     0.128888190000   
C      0.114471630000     0.497917115000     0.121505020000   
C      0.377591900000     0.211748950000     0.135986180000   
C      0.215653970000     0.404476730000     0.134001135000   
C      0.452532230000     0.189537525000     0.133303240000   
C      0.485841500000     0.159963830000     0.128152070000   
C      0.479307115000     0.120482170000     0.120906145000   
C      0.439305750000     0.111629465000     0.118699800000   
C      0.406836180000     0.141143380000     0.125273800000   
C      0.047725305000     0.159074875000     0.153267400000   
C      0.040825030000     0.190450875000     0.178641960000   
C      0.071785375000     0.181264030000     0.204786800000   
C      0.434636900000     0.066533030000     0.079637600000   
C      0.394375025000     0.081105120000     0.062796000000   
C      0.396495100000     0.070489050000     0.028952630000   
C      0.181589990000     0.061126120000     0.135670380000   
C      0.153270335000     0.074080720000     0.162082165000   
C      0.173777250000     0.097336255000     0.186445890000   
C      0.116217010000     0.371844300000     0.117072695000   
C      0.266402850000     0.478523225000     0.083033025000   
C      0.207683610000     0.479119800000     0.439199800000   
C      0.193611950000     0.415083100000     0.453363850000   
C      0.178624900000     0.408213675000     0.423695830000   
C      0.179131750000     0.437355150000     0.401375620000   
C      0.193995415000     0.473017870000     0.409064150000   
C      0.163422270000     0.372812150000     0.415805800000   
C      0.149219100000     0.366378070000     0.386148065000   
C      0.149858475000     0.395165600000     0.363593150000   
C      0.164727700000     0.430823950000     0.371287300000   
C      0.165219050000     0.459977750000     0.348961850000   
C      0.180428600000     0.495376050000     0.356856900000   
C      0.194633080000     0.001811265000     0.386514000000   
C      0.136182800000     0.389057935000     0.333455770000   
C      0.150237200000     0.453111025000     0.319303700000   
C      0.082618825000     0.400463750000     0.275841265000   
C      0.068549530000     0.393189130000     0.246222020000   
C      0.092368895000     0.397581070000     0.221032750000   
C      0.130737675000     0.409092350000     0.226196800000   
C      0.145218910000     0.415378200000     0.255881600000   
C      0.121286500000     0.411299650000     0.281092525000   
C      0.261256650000     0.467721950000     0.496809800000   
C      0.275335850000     0.474990450000     0.026416240000   
C      0.251537100000     0.470588900000     0.051620545000   
C      0.213170080000     0.459069750000     0.046464085000   
C      0.198673740000     0.452787400000     0.016782285000   
C      0.222590625000     0.456878300000     0.491566120000   
C      0.077512350000     0.389654600000     0.189615750000   
C      0.011507840000     0.267752650000     0.136354310000   
C      0.046935790000     0.288247465000     0.132956325000   
C      0.044744365000     0.328991700000     0.136389465000   
C      0.005881305000     0.355731000000     0.142511590000   
C      0.085553690000     0.261682600000     0.125883535000   
C      0.080635735000     0.349205970000     0.134638600000   
C      0.301894300000     0.037840820000     0.138854640000   
C      0.290784330000     0.078457475000     0.136350960000   
C      0.320875020000     0.105989440000     0.135187535000   
C      0.272270175000     0.009743315000     0.137568550000   
C      0.247476190000     0.097457910000     0.133740500000   
C      0.344985785000     0.019391315000     0.143802165000   
Br     0.292776900000     0.235084490000     0.081543670000   
N      0.404512750000     0.135022015000     0.316295415000   
N      0.437269480000     0.233461335000     0.454686350000   
N      0.011957880000     0.052698720000     0.131980715000   
N      0.043851130000     0.024113050000     0.132408975000   
N      0.080099145000     0.064329490000     0.104819530000   
N      0.048097120000     0.093040785000     0.104368130000   
N      0.207651720000     0.450228700000     0.460784375000   
N      0.136211635000     0.417953800000     0.311876600000   
N      0.483909935000     0.250811550000     0.138741800000   
N      0.108504550000     0.365968885000     0.133176135000   
N      0.249549250000     0.486789825000     0.137396800000   
N      0.343874050000     0.128535675000     0.133901685000   
O      0.277002780000     0.240831100000     0.144991130000   
O      0.305728970000     0.391148625000     0.123457810000   
O      0.360086320000     0.337134330000     0.108260215000   
O      0.374939700000     0.323275250000     0.160481585000   
O      0.316061615000     0.256045700000     0.186161710000   
O      0.231394110000     0.301856520000     0.098268570000   
O      0.236868965000     0.405266225000     0.140776830000   
O      0.193973065000     0.361121350000     0.130659700000   
O      0.397376330000     0.256129680000     0.140360700000   
O      0.354480400000     0.211984815000     0.130243570000   
O      0.312798700000     0.368885550000     0.175535085000   
O      0.356190650000     0.023788145000     0.203688085000   
O      0.389304500000     0.066636705000     0.177958450000   
O      0.344784825000     0.116595820000     0.335255550000   
O      0.464209350000     0.153779180000     0.297559950000   
O      0.497010450000     0.251874700000     0.435734330000   
O      0.377557875000     0.214726800000     0.473416450000   
O      0.485604225000     0.344649820000     0.067322670000   
O      0.452491450000     0.301787100000     0.093038855000   
O      0.383036600000     0.248074235000     0.143297200000   
O      0.341618050000     0.202498170000     0.130468520000   
O      0.251328020000     0.413508950000     0.141874050000   
O      0.209909485000     0.367932850000     0.129045380000   
O      0.023877390000     0.171369375000     0.126960770000   
O      0.431336375000     0.073615780000     0.111401930000   
O      0.161159215000     0.043981265000     0.111242950000   
O      0.133242890000     0.391418000000     0.141770200000   
O      0.293328730000     0.002174615000     0.086449085000   
O      0.252050850000     0.461071050000     0.105445920000   
O      0.220384950000     0.013977170000     0.446874150000   
O      0.194623335000     0.386489480000     0.474437300000   
O      0.123493925000     0.354194850000     0.325779700000   
O      0.149215050000     0.481704450000     0.298227130000   
O      0.050585155000     0.366003950000     0.186187970000   
O      0.091875075000     0.407107025000     0.167205950000   
O      0.006731480000     0.389781325000     0.151949800000   
O      0.468437500000     0.342924030000     0.136947930000   
O      0.088370600000     0.225746540000     0.129940780000   
O      0.118265065000     0.276982220000     0.113964670000   
O      0.239113865000     0.131473465000     0.124182210000   
O      0.216311770000     0.077467200000     0.142899410000   
O      0.355560100000     0.484374225000     0.136734410000   
O      0.373137450000     0.041127035000     0.157627570000   
Cu     0.203371300000     0.453339935000     0.642923085000   
Cu     0.142318025000     0.412366480000     0.630479320000   
Cu     0.405782850000     0.149800630000     0.629751100000   
Cu     0.433328270000     0.218109875000     0.643644365000   
H      0.233123170000     0.298999580000     0.660194650000   
H      0.323561350000     0.294081400000     0.583355770000   
H      0.298431950000     0.405985650000     0.711932480000   
H      0.256156200000     0.389564485000     0.693484950000   
H      0.282065750000     0.427997150000     0.676803335000   
H      0.241848990000     0.239431710000     0.684088050000   
H      0.280179750000     0.196453540000     0.677390740000   
H      0.234859870000     0.204442650000     0.654007630000   
H      0.356694550000     0.416092600000     0.614205495000   
H      0.342640500000     0.421184780000     0.653848050000   
H      0.313725400000     0.449805915000     0.625305175000   
H      0.392120420000     0.286179425000     0.588207625000   
H      0.421324600000     0.311641250000     0.616132675000   
H      0.407985570000     0.332170600000     0.579809180000   
H      0.384489400000     0.376411885000     0.682078150000   
H      0.398557215000     0.372616750000     0.642106620000   
H      0.427835250000     0.345028950000     0.669733585000   
H      0.327261565000     0.311628000000     0.703746975000   
H      0.371408600000     0.273374915000     0.697171150000   
H      0.338977650000     0.270347775000     0.727648365000   
H      0.239984500000     0.302517535000     0.551166675000   
H      0.203791230000     0.342951750000     0.566601365000   
H      0.191620635000     0.293120475000     0.563029475000   
H      0.264807580000     0.321438370000     0.685236110000   
H      0.271387250000     0.342204000000     0.587905550000   
H      0.498656800000     0.196958230000     0.833580650000   
H      0.010017750000     0.230989130000     0.881487800000   
H      0.343118800000     0.171537750000     0.937397630000   
H      0.331767975000     0.137502535000     0.889502200000   
H      0.448286535000     0.310615900000     0.962679850000   
H      0.461465600000     0.344777700000     0.510693195000   
H      0.452409180000     0.237453415000     0.559732260000   
H      0.441517700000     0.202758600000     0.511478665000   
H      0.393497700000     0.057863705000     0.808322250000   
H      0.380320670000     0.023682665000     0.760316730000   
H      0.389402100000     0.130980330000     0.711249620000   
H      0.400277700000     0.165693430000     0.759487120000   
H      0.457789800000     0.219810875000     0.637951075000   
H      0.376563650000     0.133330835000     0.624035650000   
H      0.217471675000     0.480422675000     0.617894470000   
H      0.077997515000     0.452902700000     0.632319540000   
H      0.079933120000     0.155745750000     0.646793850000   
H      0.042664945000     0.129666520000     0.662030160000   
H      0.043140180000     0.220309465000     0.669648810000   
H      0.009925250000     0.190807730000     0.687171740000   
H      0.069258660000     0.151940480000     0.714815215000   
H      0.066255295000     0.204738850000     0.722734170000   
H      0.102968950000     0.180732350000     0.696563930000   
H      0.442202300000     0.033762340000     0.576036670000   
H      0.459593475000     0.079961860000     0.569563950000   
H      0.369951300000     0.067082645000     0.572676480000   
H      0.386638880000     0.114003995000     0.565399885000   
H      0.420454325000     0.084556385000     0.518334210000   
H      0.366979950000     0.081578890000     0.517447940000   
H      0.403082670000     0.037604935000     0.525657930000   
H      0.192277460000     0.088078760000     0.626859410000   
H      0.209136485000     0.041157810000     0.643910215000   
H      0.125567390000     0.093181545000     0.653281780000   
H      0.144192050000     0.047391435000     0.672661750000   
H      0.201333120000     0.078603210000     0.695941565000   
H      0.152574480000     0.106099900000     0.705186935000   
H      0.182214915000     0.124824735000     0.676694500000   
H      0.106948200000     0.344009150000     0.625389400000   
H      0.138960240000     0.363389970000     0.599260820000   
H      0.088627345000     0.390006950000     0.607052080000   
H      0.162358940000     0.349955680000     0.932528950000   
H      0.137676420000     0.338767650000     0.880985450000   
H      0.181490630000     0.018231390000     0.840134380000   
H      0.206180515000     0.029411020000     0.891666400000   
H      0.063327100000     0.397590130000     0.794762350000   
H      0.038779415000     0.384583980000     0.743018165000   
H      0.149936585000     0.412454425000     0.707304015000   
H      0.175281910000     0.423228770000     0.759242980000   
H      0.280543250000     0.470592825000     0.977878950000   
H      0.305111170000     0.483600200000     0.529617550000   
H      0.193979220000     0.455705800000     0.565361200000   
H      0.168611540000     0.444943150000     0.513436735000   
H      0.444712430000     0.364188435000     0.641938375000   
H      0.142318220000     0.255582900000     0.610096425000   
H      0.188555135000     0.094099545000     0.640338850000   
H      0.400803300000     0.024553965000     0.660791950000   
C      0.230154260000     0.369625600000     0.636925740000   
C      0.361990125000     0.248275370000     0.633248465000   
C      0.307287600000     0.358145625000     0.643927125000   
C      0.344687880000     0.325145650000     0.636433215000   
C      0.263692400000     0.308160125000     0.662132550000   
C      0.267630050000     0.318225235000     0.604323290000   
C      0.266715950000     0.338808150000     0.637071865000   
C      0.285530550000     0.399497250000     0.689172715000   
C      0.328317435000     0.281975985000     0.632945600000   
C      0.257719550000     0.219713100000     0.666351230000   
C      0.331228225000     0.420035600000     0.630085675000   
C      0.396909150000     0.315256150000     0.598340340000   
C      0.396354230000     0.356229700000     0.663256700000   
C      0.339311870000     0.279761100000     0.703642950000   
C      0.216331570000     0.310758350000     0.568385050000   
C      0.297205865000     0.271701100000     0.658071475000   
C      0.304722665000     0.284961550000     0.601409150000   
C      0.375870525000     0.053877880000     0.702798115000   
C      0.377778900000     0.134782360000     0.839456080000   
C      0.437582650000     0.154523120000     0.820083400000   
C      0.444433930000     0.174934240000     0.847549380000   
C      0.417576075000     0.174313025000     0.871506600000   
C      0.384094600000     0.153891220000     0.867571250000   
C      0.477626500000     0.195689125000     0.851664125000   
C      0.484160050000     0.215270815000     0.879229550000   
C      0.457685650000     0.214601900000     0.903413200000   
C      0.424208800000     0.194174300000     0.899472650000   
C      0.397337050000     0.193567620000     0.923434150000   
C      0.364148230000     0.172805535000     0.919314950000   
C      0.357613830000     0.153222515000     0.891750365000   
C      0.464008800000     0.233699440000     0.931531130000   
C      0.404185700000     0.213971750000     0.950891100000   
C      0.449592100000     0.294285100000     0.983715650000   
C      0.456966400000     0.313835680000     0.511207400000   
C      0.457886800000     0.293858650000     0.539045990000   
C      0.451597950000     0.253759600000     0.538705585000   
C      0.445247050000     0.233918400000     0.511134205000   
C      0.444001550000     0.253963530000     0.983280600000   
C      0.392189385000     0.074187525000     0.787277450000   
C      0.384823500000     0.054629940000     0.759799125000   
C      0.383914300000     0.074585510000     0.731947275000   
C      0.390210480000     0.114682635000     0.732279880000   
C      0.396555650000     0.134537800000     0.759846865000   
C      0.397787200000     0.114507220000     0.787704700000   
C      0.465924400000     0.314557015000     0.568201065000   
C      0.412941725000     0.180325760000     0.632275075000   
C      0.078756185000     0.029459720000     0.619208200000   
C      0.013549035000     0.087802520000     0.618192365000   
C      0.154397830000     0.005943615000     0.618468290000   
C      0.187006350000     0.474651900000     0.621618590000   
C      0.180633560000     0.436271600000     0.629688785000   
C      0.140676735000     0.428319500000     0.632437885000   
C      0.108295300000     0.459291250000     0.628888190000   
C      0.114471630000     0.497917115000     0.621505020000   
C      0.377591900000     0.211748950000     0.635986180000   
C      0.215653970000     0.404476730000     0.634001135000   
C      0.452532230000     0.189537525000     0.633303240000   
C      0.485841500000     0.159963830000     0.628152070000   
C      0.479307115000     0.120482170000     0.620906145000   
C      0.439305750000     0.111629465000     0.618699800000   
C      0.406836180000     0.141143380000     0.625273800000   
C      0.047725305000     0.159074875000     0.653267400000   
C      0.040825030000     0.190450875000     0.678641960000   
C      0.071785375000     0.181264030000     0.704786800000   
C      0.434636900000     0.066533030000     0.579637600000   
C      0.394375025000     0.081105120000     0.562796000000   
C      0.396495100000     0.070489050000     0.528952630000   
C      0.181589990000     0.061126120000     0.635670380000   
C      0.153270335000     0.074080720000     0.662082165000   
C      0.173777250000     0.097336255000     0.686445890000   
C      0.116217010000     0.371844300000     0.617072695000   
C      0.266402850000     0.478523225000     0.583033025000   
C      0.207683610000     0.479119800000     0.939199800000   
C      0.193611950000     0.415083100000     0.953363850000   
C      0.178624900000     0.408213675000     0.923695830000   
C      0.179131750000     0.437355150000     0.901375620000   
C      0.193995415000     0.473017870000     0.909064150000   
C      0.163422270000     0.372812150000     0.915805800000   
C      0.149219100000     0.366378070000     0.886148065000   
C      0.149858475000     0.395165600000     0.863593150000   
C      0.164727700000     0.430823950000     0.871287300000   
C      0.165219050000     0.459977750000     0.848961850000   
C      0.180428600000     0.495376050000     0.856856900000   
C      0.194633080000     0.001811265000     0.886514000000   
C      0.136182800000     0.389057935000     0.833455770000   
C      0.150237200000     0.453111025000     0.819303700000   
C      0.082618825000     0.400463750000     0.775841265000   
C      0.068549530000     0.393189130000     0.746222020000   
C      0.092368895000     0.397581070000     0.721032750000   
C      0.130737675000     0.409092350000     0.726196800000   
C      0.145218910000     0.415378200000     0.755881600000   
C      0.121286500000     0.411299650000     0.781092525000   
C      0.261256650000     0.467721950000     0.996809800000   
C      0.275335850000     0.474990450000     0.526416240000   
C      0.251537100000     0.470588900000     0.551620545000   
C      0.213170080000     0.459069750000     0.546464085000   
C      0.198673740000     0.452787400000     0.516782285000   
C      0.222590625000     0.456878300000     0.991566120000   
C      0.077512350000     0.389654600000     0.689615750000   
C      0.011507840000     0.267752650000     0.636354310000   
C      0.046935790000     0.288247465000     0.632956325000   
C      0.044744365000     0.328991700000     0.636389465000   
C      0.005881305000     0.355731000000     0.642511590000   
C      0.085553690000     0.261682600000     0.625883535000   
C      0.080635735000     0.349205970000     0.634638600000   
C      0.301894300000     0.037840820000     0.638854640000   
C      0.290784330000     0.078457475000     0.636350960000   
C      0.320875020000     0.105989440000     0.635187535000   
C      0.272270175000     0.009743315000     0.637568550000   
C      0.247476190000     0.097457910000     0.633740500000   
C      0.344985785000     0.019391315000     0.643802165000   
Br     0.292776900000     0.235084490000     0.581543670000   
N      0.404512750000     0.135022015000     0.816295415000   
N      0.437269480000     0.233461335000     0.954686350000   
N      0.011957880000     0.052698720000     0.631980715000   
N      0.043851130000     0.024113050000     0.632408975000   
N      0.080099145000     0.064329490000     0.604819530000   
N      0.048097120000     0.093040785000     0.604368130000   
N      0.207651720000     0.450228700000     0.960784375000   
N      0.136211635000     0.417953800000     0.811876600000   
N      0.483909935000     0.250811550000     0.638741800000   
N      0.108504550000     0.365968885000     0.633176135000   
N      0.249549250000     0.486789825000     0.637396800000   
N      0.343874050000     0.128535675000     0.633901685000   
O      0.277002780000     0.240831100000     0.644991130000   
O      0.305728970000     0.391148625000     0.623457810000   
O      0.360086320000     0.337134330000     0.608260215000   
O      0.374939700000     0.323275250000     0.660481585000   
O      0.316061615000     0.256045700000     0.686161710000   
O      0.231394110000     0.301856520000     0.598268570000   
O      0.236868965000     0.405266225000     0.640776830000   
O      0.193973065000     0.361121350000     0.630659700000   
O      0.397376330000     0.256129680000     0.640360700000   
O      0.354480400000     0.211984815000     0.630243570000   
O      0.312798700000     0.368885550000     0.675535085000   