%BLOCK LATTICE_CART
ang    # angstrom units
  17.320210000000    0.000000000000     0.000000000000   
  6.502923492003     16.831252638269    0.000000000000   
  7.815080073199     2.182539050269     16.381028435469  
%ENDBLOCK LATTICE_CART

%BLOCK POSITIONS_FRAC
Cu     0.465173450000     0.018017130000     0.481530665000   
Cu     0.493440250000     0.037254795000     0.402775850000   
H      0.416388750000     0.401859580000     0.481770785000   
H      0.488402365000     0.410797835000     0.350928130000   
H      0.011411845000     0.277283150000     0.485804050000   
H      0.020623150000     0.273889275000     0.398995580000   
H      0.025643230000     0.339371235000     0.357488500000   
H      0.482494650000     0.217823280000     0.027023255000   
H      0.066545900000     0.148388350000     0.403937520000   
H      0.070472360000     0.214407500000     0.400489300000   
H      0.452805000000     0.330710500000     0.487967500000   
H      0.482818600000     0.148761250000     0.031897725000   
H      0.376040400000     0.486881500000     0.446679200000   
H      0.368711400000     0.045127245000     0.329021100000   
H      0.236902265000     0.008224490000     0.481278570000   
H      0.242857300000     0.491164650000     0.400357425000   
H      0.299590850000     0.027754780000     0.348424250000   
H      0.167873340000     0.491365150000     0.035456540000   
H      0.176262600000     0.037656605000     0.411244780000   
H      0.309137650000     0.468368230000     0.464847700000   
H      0.097254440000     0.048392085000     0.432119700000   
H      0.087702625000     0.003164850000     0.056960760000   
H      0.471470920000     0.098455705000     0.097283660000   
H      0.485815825000     0.458568100000     0.289110420000   
H      0.482981150000     0.472427850000     0.115177670000   
H      0.474305570000     0.084595980000     0.271216420000   
H      0.482396780000     0.479980250000     0.046341340000   
H      0.474887820000     0.077041750000     0.340054700000   
H      0.026571570000     0.473292530000     0.151161490000   
H      0.430715100000     0.083731325000     0.235232575000   
H      0.028268040000     0.468133865000     0.218391390000   
H      0.429018750000     0.088889965000     0.168002650000   
C      0.430074870000     0.454849400000     0.412458180000   
C      0.029990435000     0.100748860000     0.471334700000   
C      0.449566350000     0.411679835000     0.415933430000   
C      0.024958490000     0.143194110000     0.468263715000   
C      0.440199350000     0.388623685000     0.454427100000   
C      0.048783125000     0.162623615000     0.431316880000   
C      0.461814200000     0.348035125000     0.458060980000   
C      0.050733445000     0.200648040000     0.429250550000   
C      0.493350415000     0.330233100000     0.423186570000   
C      0.026029885000     0.221174400000     0.463412880000   
C      0.002063930000     0.353027200000     0.384697400000   
C      0.002062680000     0.202093540000     0.000515520000   
C      0.480413615000     0.393608035000     0.381022800000   
C      0.001540365000     0.163135870000     0.002990840000   
C      0.013739465000     0.287175715000     0.425316950000   
C      0.019026160000     0.264180300000     0.459138250000   
C      0.417987350000     0.027226665000     0.376212050000   
C      0.040354030000     0.029227885000     0.007434070000   
C      0.376185650000     0.018902340000     0.387141450000   
C      0.086879275000     0.025905870000     0.495927600000   
C      0.359487100000     0.496507675000     0.425064475000   
C      0.112231725000     0.035827550000     0.454978250000   
C      0.321574800000     0.485521170000     0.435324965000   
C      0.157513150000     0.029067360000     0.442935020000   
C      0.299100950000     0.497805950000     0.408275400000   
C      0.177944750000     0.011767275000     0.471692150000   
C      0.316802920000     0.018284780000     0.369524300000   
C      0.152418315000     0.003767280000     0.012925625000   
C      0.355465800000     0.028831140000     0.358875750000   
C      0.106899000000     0.010688125000     0.025089800000   
C      0.254115900000     0.494912325000     0.422332850000   
C      0.225574940000     0.003971805000     0.459579600000   
C      0.472955315000     0.075106330000     0.048087130000   
C      0.484329250000     0.481915650000     0.338308930000   
C      0.473368800000     0.072077670000     0.087029425000   
C      0.483917950000     0.484946130000     0.299364625000   
C      0.477111500000     0.035017265000     0.112178000000   
C      0.480175250000     0.022006555000     0.274216050000   
C      0.480517300000     0.001568225000     0.096880420000   
C      0.476769500000     0.055455620000     0.289513620000   
C      0.479941700000     0.005817535000     0.057766640000   
C      0.477345050000     0.051206280000     0.328627400000   
C      0.005118250000     0.497462125000     0.169305950000   
C      0.452166350000     0.059559905000     0.217090010000   
C      0.006107090000     0.494537250000     0.207990125000   
C      0.451179750000     0.062486580000     0.178403915000   
C      0.479615150000     0.025517965000     0.232547650000   
C      0.477673830000     0.031507730000     0.153844400000   
C      0.469259950000     0.113417110000     0.023014360000   
C      0.488021820000     0.443611475000     0.363380800000   
N      0.476188000000     0.042158980000     0.034081465000   
N      0.481098770000     0.014864855000     0.352312550000   
N      0.466274850000     0.144332780000     0.002979870000   
N      0.491011950000     0.412691050000     0.383414200000   
O      0.440313665000     0.475019350000     0.375651180000   
O      0.017970205000     0.080566475000     0.008074880000   
O      0.406478100000     0.471412450000     0.446325350000   
O      0.051805795000     0.084173305000     0.437400730000   
O      0.441668870000     0.035262125000     0.338327230000   
O      0.016308340000     0.022246925000     0.045332430000   
O      0.433108650000     0.020644090000     0.404558200000   
O      0.024868540000     0.036864950000     0.479101480000   
Cu     0.465173450000     0.018017130000     0.981530665000   
Cu     0.493440250000     0.037254795000     0.902775850000   
H      0.416388750000     0.401859580000     0.981770785000   
H      0.488402365000     0.410797835000     0.850928130000   
H      0.011411845000     0.277283150000     0.985804050000   
H      0.020623150000     0.273889275000     0.898995580000   
H      0.025643230000     0.339371235000     0.857488500000   
H      0.482494650000     0.217823280000     0.527023255000   
H      0.066545900000     0.148388350000     0.903937520000   
H      0.070472360000     0.214407500000     0.900489300000   
H      0.452805000000     0.330710500000     0.987967500000   
H      0.482818600000     0.148761250000     0.531897725000   
H      0.376040400000     0.486881500000     0.946679200000   
H      0.368711400000     0.045127245000     0.829021100000   
H      0.236902265000     0.008224490000     0.981278570000   
H      0.242857300000     0.491164650000     0.900357425000   
H      0.299590850000     0.027754780000     0.848424250000   
H      0.167873340000     0.491365150000     0.535456540000   
H      0.176262600000     0.037656605000     0.911244780000   
H      0.309137650000     0.468368230000     0.964847700000   
H      0.097254440000     0.048392085000     0.932119700000   
H      0.087702625000     0.003164850000     0.556960760000   
H      0.471470920000     0.098455705000     0.597283660000   
H      0.485815825000     0.458568100000     0.789110420000   
H      0.482981150000     0.472427850000     0.615177670000   
H      0.474305570000     0.084595980000     0.771216420000   
H      0.482396780000     0.479980250000     0.546341340000   
H      0.474887820000     0.077041750000     0.840054700000   
H      0.026571570000     0.473292530000     0.651161490000   
H      0.430715100000     0.083731325000     0.735232575000   
H      0.028268040000     0.468133865000     0.718391390000   
H      0.429018750000     0.088889965000     0.668002650000   
C      0.430074870000     0.454849400000     0.912458180000   
C      0.029990435000     0.100748860000     0.971334700000   
C      0.449566350000     0.411679835000     0.915933430000   
C      0.024958490000     0.143194110000     0.968263715000   
C      0.440199350000     0.388623685000     0.954427100000   
C      0.048783125000     0.162623615000     0.931316880000   
C      0.461814200000     0.348035125000     0.958060980000   
C      0.050733445000     0.200648040000     0.929250550000   
C      0.493350415000     0.330233100000     0.923186570000   
C      0.026029885000     0.221174400000     0.963412880000   
C      0.002063930000     0.353027200000     0.884697400000   
C      0.002062680000     0.202093540000     0.500515520000   
C      0.480413615000     0.393608035000     0.881022800000   
C      0.001540365000     0.163135870000     0.502990840000   
C      0.013739465000     0.287175715000     0.925316950000   
C      0.019026160000     0.264180300000     0.959138250000   
C      0.417987350000     0.027226665000     0.876212050000   
C      0.040354030000     0.029227885000     0.507434070000   
C      0.376185650000     0.018902340000     0.887141450000   
C      0.086879275000     0.025905870000     0.995927600000   
C      0.359487100000     0.496507675000     0.925064475000   
C      0.112231725000     0.035827550000     0.954978250000   
C      0.321574800000     0.485521170000     0.935324965000   
C      0.157513150000     0.029067360000     0.942935020000   
C      0.299100950000     0.497805950000     0.908275400000   
C      0.177944750000     0.011767275000     0.971692150000   
C      0.316802920000     0.018284780000     0.869524300000   
C      0.152418315000     0.003767280000     0.512925625000   
C      0.355465800000     0.028831140000     0.858875750000   
C      0.106899000000     0.010688125000     0.525089800000   
C      0.254115900000     0.494912325000     0.922332850000   
C      0.225574940000     0.003971805000     0.959579600000   
C      0.472955315000     0.075106330000     0.548087130000   
C      0.484329250000     0.481915650000     0.838308930000   
C      0.473368800000     0.072077670000     0.587029425000   
C      0.483917950000     0.484946130000     0.799364625000   
C      0.477111500000     0.035017265000     0.612178000000   
C      0.480175250000     0.022006555000     0.774216050000   
C      0.480517300000     0.001568225000     0.596880420000   
C      0.476769500000     0.055455620000     0.789513620000   
C      0.479941700000     0.005817535000     0.557766640000   
C      0.477345050000     0.051206280000     0.828627400000   
C      0.005118250000     0.497462125000     0.669305950000   
C      0.452166350000     0.059559905000     0.717090010000   
C      0.006107090000     0.494537250000     0.707990125000   
C      0.451179750000     0.062486580000     0.678403915000   
C      0.479615150000     0.025517965000     0.732547650000   
C      0.477673830000     0.031507730000     0.653844400000   
C      0.469259950000     0.113417110000     0.523014360000   
C      0.488021820000     0.443611475000     0.863380800000   
N      0.476188000000     0.042158980000     0.534081465000   
N      0.481098770000     0.014864855000     0.852312550000   
N      0.466274850000     0.144332780000     0.502979870000   
N      0.491011950000     0.412691050000     0.883414200000   
O      0.440313665000     0.475019350000     0.875651180000   
O      0.017970205000     0.080566475000     0.508074880000   
O      0.406478100000     0.471412450000     0.946325350000   
O      0.051805795000     0.084173305000     0.937400730000   
O      0.441668870000     0.035262125000     0.838327230000   
O      0.016308340000     0.022246925000     0.545332430000   
O      0.433108650000     0.020644090000     0.904558200000   
O      0.024868540000     0.036864950000     0.979101480000   
Cu     0.465173450000     0.518017130000     0.481530665000   
Cu     0.493440250000     0.537254795000     0.402775850000   
H      0.416388750000     0.901859580000     0.481770785000   
H      0.488402365000     0.910797835000     0.350928130000   
H      0.011411845000     0.777283150000     0.485804050000   
H      0.020623150000     0.773889275000     0.398995580000   
H      0.025643230000     0.839371235000     0.357488500000   
H      0.482494650000     0.717823280000     0.027023255000   
H      0.066545900000     0.648388350000     0.403937520000   
H      0.070472360000     0.714407500000     0.400489300000   
H      0.452805000000     0.830710500000     0.487967500000   
H      0.482818600000     0.648761250000     0.031897725000   
H      0.376040400000     0.986881500000     0.446679200000   
H      0.368711400000     0.545127245000     0.329021100000   
H      0.236902265000     0.508224490000     0.481278570000   
H      0.242857300000     0.991164650000     0.400357425000   
H      0.299590850000     0.527754780000     0.348424250000   
H      0.167873340000     0.991365150000     0.035456540000   
H      0.176262600000     0.537656605000     0.411244780000   
H      0.309137650000     0.968368230000     0.464847700000   
H      0.097254440000     0.548392085000     0.432119700000   
H      0.087702625000     0.503164850000     0.056960760000   
H      0.471470920000     0.598455705000     0.097283660000   
H      0.485815825000     0.958568100000     0.289110420000   
H      0.482981150000     0.972427850000     0.115177670000   
H      0.474305570000     0.584595980000     0.271216420000   
H      0.482396780000     0.979980250000     0.046341340000   
H      0.474887820000     0.577041750000     0.340054700000   
H      0.026571570000     0.973292530000     0.151161490000   
H      0.430715100000     0.583731325000     0.235232575000   
H      0.028268040000     0.968133865000     0.218391390000   
H      0.429018750000     0.588889965000     0.168002650000   
C      0.430074870000     0.954849400000     0.412458180000   
C      0.029990435000     0.600748860000     0.471334700000   
C      0.449566350000     0.911679835000     0.415933430000   
C      0.024958490000     0.643194110000     0.468263715000   
C      0.440199350000     0.888623685000     0.454427100000   
C      0.048783125000     0.662623615000     0.431316880000   
C      0.461814200000     0.848035125000     0.458060980000   
C      0.050733445000     0.700648040000     0.429250550000   
C      0.493350415000     0.830233100000     0.423186570000   
C      0.026029885000     0.721174400000     0.463412880000   
C      0.002063930000     0.853027200000     0.384697400000   
C      0.002062680000     0.702093540000     0.000515520000   
C      0.480413615000     0.893608035000     0.381022800000   
C      0.001540365000     0.663135870000     0.002990840000   
C      0.013739465000     0.787175715000     0.425316950000   
C      0.019026160000     0.764180300000     0.459138250000   
C      0.417987350000     0.527226665000     0.376212050000   
C      0.040354030000     0.529227885000     0.007434070000   
C      0.376185650000     0.518902340000     0.387141450000   
C      0.086879275000     0.525905870000     0.495927600000   
C      0.359487100000     0.996507675000     0.425064475000   
C      0.112231725000     0.535827550000     0.454978250000   
C      0.321574800000     0.985521170000     0.435324965000   
C      0.157513150000     0.529067360000     0.442935020000   
C      0.299100950000     0.997805950000     0.408275400000   
C      0.177944750000     0.511767275000     0.471692150000   
C      0.316802920000     0.518284780000     0.369524300000   
C      0.152418315000     0.503767280000     0.012925625000   
C      0.355465800000     0.528831140000     0.358875750000   
C      0.106899000000     0.510688125000     0.025089800000   
C      0.254115900000     0.994912325000     0.422332850000   
C      0.225574940000     0.503971805000     0.459579600000   
C      0.472955315000     0.575106330000     0.048087130000   
C      0.484329250000     0.981915650000     0.338308930000   
C      0.473368800000     0.572077670000     0.087029425000   
C      0.483917950000     0.984946130000     0.299364625000   
C      0.477111500000     0.535017265000     0.112178000000   
C      0.480175250000     0.522006555000     0.274216050000   
C      0.480517300000     0.501568225000     0.096880420000   
C      0.476769500000     0.555455620000     0.289513620000   
C      0.479941700000     0.505817535000     0.057766640000   
C      0.477345050000     0.551206280000     0.328627400000   
C      0.005118250000     0.997462125000     0.169305950000   
C      0.452166350000     0.559559905000     0.217090010000   
C      0.006107090000     0.994537250000     0.207990125000   
C      0.451179750000     0.562486580000     0.178403915000   
C      0.479615150000     0.525517965000     0.232547650000   
C      0.477673830000     0.531507730000     0.153844400000   
C      0.469259950000     0.613417110000     0.023014360000   
C      0.488021820000     0.943611475000     0.363380800000   
N      0.476188000000     0.542158980000     0.034081465000   
N      0.481098770000     0.514864855000     0.352312550000   
N      0.466274850000     0.644332780000     0.002979870000   
N      0.491011950000     0.912691050000     0.383414200000   
O      0.440313665000     0.975019350000     0.375651180000   
O      0.017970205000     0.580566475000     0.008074880000   
O      0.406478100000     0.971412450000     0.446325350000   
O      0.051805795000     0.584173305000     0.437400730000   
O      0.441668870000     0.535262125000     0.338327230000   
O      0.016308340000     0.522246925000     0.045332430000   
O      0.433108650000     0.520644090000     0.404558200000   
O      0.024868540000     0.536864950000     0.479101480000   
Cu     0.465173450000     0.518017130000     0.981530665000   
Cu     0.493440250000     0.537254795000     0.902775850000   
H      0.416388750000     0.901859580000     0.981770785000   
H      0.488402365000     0.910797835000     0.850928130000   
H      0.011411845000     0.777283150000     0.985804050000   
H      0.020623150000     0.773889275000     0.898995580000   
H      0.025643230000     0.839371235000     0.857488500000   
H      0.482494650000     0.717823280000     0.527023255000   
H      0.066545900000     0.648388350000     0.903937520000   
H      0.070472360000     0.714407500000     0.900489300000   
H      0.452805000000     0.830710500000     0.987967500000   
H      0.482818600000     0.648761250000     0.531897725000   
H      0.376040400000     0.986881500000     0.946679200000   
H      0.368711400000     0.545127245000     0.829021100000   
H      0.236902265000     0.508224490000     0.981278570000   
H      0.242857300000     0.991164650000     0.900357425000   
H      0.299590850000     0.527754780000     0.848424250000   
H      0.167873340000     0.991365150000     0.535456540000   
H      0.176262600000     0.537656605000     0.911244780000   
H      0.309137650000     0.968368230000     0.964847700000   
H      0.097254440000     0.548392085000     0.932119700000   
H      0.087702625000     0.503164850000     0.556960760000   
H      0.471470920000     0.598455705000     0.597283660000   
H      0.485815825000     0.958568100000     0.789110420000   
H      0.482981150000     0.972427850000     0.615177670000   
H      0.474305570000     0.584595980000     0.771216420000   
H      0.482396780000     0.979980250000     0.546341340000   
H      0.474887820000     0.577041750000     0.840054700000   
H      0.026571570000     0.973292530000     0.651161490000   
H      0.430715100000     0.583731325000     0.735232575000   
H      0.028268040000     0.968133865000     0.718391390000   
H      0.429018750000     0.588889965000     0.668002650000   
C      0.430074870000     0.954849400000     0.912458180000   
C      0.029990435000     0.600748860000     0.971334700000   
C      0.449566350000     0.911679835000     0.915933430000   
C      0.024958490000     0.643194110000     0.968263715000   
C      0.440199350000     0.888623685000     0.954427100000   
C      0.048783125000     0.662623615000     0.931316880000   
C      0.461814200000     0.848035125000     0.958060980000   
C      0.050733445000     0.700648040000     0.929250550000   
C      0.493350415000     0.830233100000     0.923186570000   
C      0.026029885000     0.721174400000     0.963412880000   
C      0.002063930000     0.853027200000     0.884697400000   
C      0.002062680000     0.702093540000     0.500515520000   
C      0.480413615000     0.893608035000     0.881022800000   
C      0.001540365000     0.663135870000     0.502990840000   
C      0.013739465000     0.787175715000     0.925316950000   
C      0.019026160000     0.764180300000     0.959138250000   
C      0.417987350000     0.527226665000     0.876212050000   
C      0.040354030000     0.529227885000     0.507434070000   
C      0.376185650000     0.518902340000     0.887141450000   
C      0.086879275000     0.525905870000     0.995927600000   
C      0.359487100000     0.996507675000     0.925064475000   
C      0.112231725000     0.535827550000     0.954978250000   
C      0.321574800000     0.985521170000     0.935324965000   
C      0.157513150000     0.529067360000     0.942935020000   
C      0.299100950000     0.997805950000     0.908275400000   
C      0.177944750000     0.511767275000     0.971692150000   
C      0.316802920000     0.518284780000     0.869524300000   
C      0.152418315000     0.503767280000     0.512925625000   
C      0.355465800000     0.528831140000     0.858875750000   
C      0.106899000000     0.510688125000     0.525089800000   
C      0.254115900000     0.994912325000     0.922332850000   
C      0.225574940000     0.503971805000     0.959579600000   
C      0.472955315000     0.575106330000     0.548087130000   
C      0.484329250000     0.981915650000     0.838308930000   
C      0.473368800000     0.572077670000     0.587029425000   
C      0.483917950000     0.984946130000     0.799364625000   
C      0.477111500000     0.535017265000     0.612178000000   
C      0.480175250000     0.522006555000     0.774216050000   
C      0.480517300000     0.501568225000     0.596880420000   
C      0.476769500000     0.555455620000     0.789513620000   
C      0.479941700000     0.505817535000     0.557766640000   
C      0.477345050000     0.551206280000     0.828627400000   
C      0.005118250000     0.997462125000     0.669305950000   
C      0.452166350000     0.559559905000     0.717090010000   
C      0.006107090000     0.994537250000     0.707990125000   
C      0.451179750000     0.562486580000     0.678403915000   
C      0.479615150000     0.525517965000     0.732547650000   
C      0.477673830000     0.531507730000     0.653844400000   
C      0.469259950000     0.613417110000     0.523014360000   
C      0.488021820000     0.943611475000     0.863380800000   
N      0.476188000000     0.542158980000     0.534081465000   
N      0.481098770000     0.514864855000     0.852312550000   
N      0.466274850000     0.644332780000     0.502979870000   
N      0.491011950000     0.912691050000     0.883414200000   
O      0.440313665000     0.975019350000     0.875651180000   
O      0.017970205000     0.580566475000     0.508074880000   
O      0.406478100000     0.971412450000     0.946325350000   
O      0.051805795000     0.584173305000     0.937400730000   
O      0.441668870000     0.535262125000     0.838327230000   
O      0.016308340000     0.522246925000     0.545332430000   
O      0.433108650000     0.520644090000     0.904558200000   
O      0.024868540000     0.536864950000     0.979101480000   
Cu     0.965173450000     0.018017130000     0.481530665000   
Cu     0.993440250000     0.037254795000     0.402775850000   
H      0.916388750000     0.401859580000     0.481770785000   
H      0.988402365000     0.410797835000     0.350928130000   
H      0.511411845000     0.277283150000     0.485804050000   
H      0.520623150000     0.273889275000     0.398995580000   
H      0.525643230000     0.339371235000     0.357488500000   
H      0.982494650000     0.217823280000     0.027023255000   
H      0.566545900000     0.148388350000     0.403937520000   
H      0.570472360000     0.214407500000     0.400489300000   
H      0.952805000000     0.330710500000     0.487967500000   
H      0.982818600000     0.148761250000     0.031897725000   
H      0.876040400000     0.486881500000     0.446679200000   
H      0.868711400000     0.045127245000     0.329021100000   
H      0.736902265000     0.008224490000     0.481278570000   
H      0.742857300000     0.491164650000     0.400357425000   
H      0.799590850000     0.027754780000     0.348424250000   
H      0.667873340000     0.491365150000     0.035456540000   
H      0.676262600000     0.037656605000     0.411244780000   
H      0.809137650000     0.468368230000     0.464847700000   
H      0.597254440000     0.048392085000     0.432119700000   
H      0.587702625000     0.003164850000     0.056960760000   
H      0.971470920000     0.098455705000     0.097283660000   
H      0.985815825000     0.458568100000     0.289110420000   
H      0.982981150000     0.472427850000     0.115177670000   
H      0.974305570000     0.084595980000     0.271216420000   
H      0.982396780000     0.479980250000     0.046341340000   
H      0.974887820000     0.077041750000     0.340054700000   
H      0.526571570000     0.473292530000     0.151161490000   
H      0.930715100000     0.083731325000     0.235232575000   
H      0.528268040000     0.468133865000     0.218391390000   
H      0.929018750000     0.088889965000     0.168002650000   
C      0.930074870000     0.454849400000     0.412458180000   
C      0.529990435000     0.100748860000     0.471334700000   
C      0.949566350000     0.411679835000     0.415933430000   
C      0.524958490000     0.143194110000     0.468263715000   
C      0.940199350000     0.388623685000     0.454427100000   
C      0.548783125000     0.162623615000     0.431316880000   
C      0.961814200000     0.348035125000     0.458060980000   
C      0.550733445000     0.200648040000     0.429250550000   
C      0.993350415000     0.330233100000     0.423186570000   
C      0.526029885000     0.221174400000     0.463412880000   
C      0.502063930000     0.353027200000     0.384697400000   
C      0.502062680000     0.202093540000     0.000515520000   
C      0.980413615000     0.393608035000     0.381022800000   
C      0.501540365000     0.163135870000     0.002990840000   
C      0.513739465000     0.287175715000     0.425316950000   
C      0.519026160000     0.264180300000     0.459138250000   
C      0.917987350000     0.027226665000     0.376212050000   
C      0.540354030000     0.029227885000     0.007434070000   
C      0.876185650000     0.018902340000     0.387141450000   
C      0.586879275000     0.025905870000     0.495927600000   
C      0.859487100000     0.496507675000     0.425064475000   
C      0.612231725000     0.035827550000     0.454978250000   
C      0.821574800000     0.485521170000     0.435324965000   
C      0.657513150000     0.029067360000     0.442935020000   
C      0.799100950000     0.497805950000     0.408275400000   
C      0.677944750000     0.011767275000     0.471692150000   
C      0.816802920000     0.018284780000     0.369524300000   
C      0.652418315000     0.003767280000     0.012925625000   
C      0.855465800000     0.028831140000     0.358875750000   
C      0.606899000000     0.010688125000     0.025089800000   
C      0.754115900000     0.494912325000     0.422332850000   
C      0.725574940000     0.003971805000     0.459579600000   
C      0.972955315000     0.075106330000     0.048087130000   
C      0.984329250000     0.481915650000     0.338308930000   
C      0.973368800000     0.072077670000     0.087029425000   
C      0.983917950000     0.484946130000     0.299364625000   
C      0.977111500000     0.035017265000     0.112178000000   
C      0.980175250000     0.022006555000     0.274216050000   
C      0.980517300000     0.001568225000     0.096880420000   
C      0.976769500000     0.055455620000     0.289513620000   
C      0.979941700000     0.005817535000     0.057766640000   
C      0.977345050000     0.051206280000     0.328627400000   
C      0.505118250000     0.497462125000     0.169305950000   
C      0.952166350000     0.059559905000     0.217090010000   
C      0.506107090000     0.494537250000     0.207990125000   
C      0.951179750000     0.062486580000     0.178403915000   
C      0.979615150000     0.025517965000     0.232547650000   
C      0.977673830000     0.031507730000     0.153844400000   
C      0.969259950000     0.113417110000     0.023014360000   
C      0.988021820000     0.443611475000     0.363380800000   
N      0.976188000000     0.042158980000     0.034081465000   
N      0.981098770000     0.014864855000     0.352312550000   
N      0.966274850000     0.144332780000     0.002979870000   
N      0.991011950000     0.412691050000     0.383414200000   
O      0.940313665000     0.475019350000     0.375651180000   
O      0.517970205000     0.080566475000     0.008074880000   
O      0.906478100000     0.471412450000     0.446325350000   
O      0.551805795000     0.084173305000     0.437400730000   
O      0.941668870000     0.035262125000     0.338327230000   
O      0.516308340000     0.022246925000     0.045332430000   
O      0.933108650000     0.020644090000     0.404558200000   
O      0.524868540000     0.036864950000     0.479101480000   
Cu     0.965173450000     0.018017130000     0.981530665000   
Cu     0.993440250000     0.037254795000     0.902775850000   