%BLOCK LATTICE_CART
ang    # angstrom units
  9.139650000000     0.000000000000     0.000000000000   
 -0.117288956892     18.463257461171    0.000000000000   
 -1.195952575583    -0.845224036142     24.559795794389  
%ENDBLOCK LATTICE_CART

%BLOCK POSITIONS_FRAC
Zn     0.134321780000     0.085275920000     0.163212240000   
Zn     0.073110223333     0.036131535000     0.196521450000   
Cu     0.161319783333     0.209583100000     0.023929905000   
Cu     0.060632606667     0.207324625000     0.019156590000   
Cu     0.159008313333     0.372567350000     0.353000375000   
Cu     0.059502890000     0.367586730000     0.347184800000   
H      0.279921766667     0.172182290000     0.443581750000   
H      0.317904453333     0.362625450000     0.382477015000   
H      0.057756696667     0.326338680000     0.012607335000   
H      0.141921360000     0.370614170000     0.492767780000   
H      0.313383966667     0.255992550000     0.390318650000   
H      0.312859953333     0.267582475000     0.354795550000   
H      0.007350863333     0.226036580000     0.365729330000   
H      0.070943723333     0.272213100000     0.357917800000   
H      0.071265460000     0.260380150000     0.392995300000   
H      0.022072463333     0.316258670000     0.403611125000   
H      0.018176120000     0.327201275000     0.369961750000   
H      0.265128910000     0.258309000000     0.443111300000   
H      0.268269833333     0.210745035000     0.450931450000   
H      0.254306953333     0.223977060000     0.416497530000   
H      0.179216433333     0.203608530000     0.438139470000   
H      0.176393066667     0.250226450000     0.429460615000   
H      0.198019366667     0.269888950000     0.477730650000   
H      0.210124900000     0.225677090000     0.486648830000   
H      0.319758016667     0.366821080000     0.320798665000   
H      0.029014230000     0.393293830000     0.302593600000   
H      0.011768826667     0.348118275000     0.290283650000   
H      0.093341073333     0.344989270000     0.312886250000   
H      0.051069280000     0.322277050000     0.331415650000   
H      0.042307596667     0.381739170000     0.361716450000   
H      0.087015000000     0.401826920000     0.344901850000   
H      0.232994100000     0.142231050000     0.015996815000   
H      0.179145266667     0.115438230000     0.021386445000   
H      0.213027120000     0.107300365000     0.491301500000   
H      0.138807233333     0.142055110000     0.478844435000   
H      0.192492433333     0.168154120000     0.475303770000   
H      0.179046610000     0.201255470000     0.020360350000   
H      0.133954966667     0.171471925000     0.026871680000   
H      0.210955380000     0.408463420000     0.045761105000   
H      0.245365000000     0.490957350000     0.176082450000   
H      0.324349366667     0.485644130000     0.014733140000   
H      0.283240233333     0.454649100000     0.496417730000   
H      0.267028986667     0.001211820000     0.499895800000   
H      0.220291233333     0.469257830000     0.032276570000   
H      0.266582000000     0.495042500000     0.051305275000   
H      0.321394166667     0.458323550000     0.167120665000   
H      0.014129640000     0.423964000000     0.098631730000   
H      0.043475110000     0.444453450000     0.129246710000   
H      0.066236100000     0.402685285000     0.115079125000   
H      0.018483720000     0.390711070000     0.155508350000   
H      0.324249743333     0.370095500000     0.125057830000   
H      0.278504666667     0.478139700000     0.136465965000   
H      0.320386946667     0.485157500000     0.165855050000   
H      0.315073733333     0.018990695000     0.140350625000   
H      0.057608340000     0.483011800000     0.135812200000   
H      0.016659273333     0.477452950000     0.106331200000   
H      0.319817683333     0.417947680000     0.124698200000   
H      0.025097583333     0.426556250000     0.153996950000   
H      0.219489733333     0.472797575000     0.028576605000   
H      0.193603433333     0.016256390000     0.037171595000   
H      0.241780766667     0.498089375000     0.058858925000   
H      0.137166193333     0.467425250000     0.049076650000   
H      0.160558273333     0.491493950000     0.079118340000   
H      0.220995586667     0.445377500000     0.087980420000   
H      0.206714750000     0.419779420000     0.058514140000   
H      0.018599813333     0.460304900000     0.058497360000   
H      0.239950020000     0.380764500000     0.115273880000   
H      0.327659300000     0.353260575000     0.087330930000   
H      0.167186616667     0.470631720000     0.153456760000   
H      0.242927366667     0.354118800000     0.067928440000   
H      0.261234366667     0.206429350000     0.077893225000   
H      0.063314253333     0.075360360000     0.187547625000   
H      0.124861366667     0.103915550000     0.160070000000   
H      0.210166653333     0.178786800000     0.111565850000   
H      0.180786633333     0.108949200000     0.085466815000   
H      0.182696423333     0.045942635000     0.085915780000   
H      0.122338423333     0.044184280000     0.098387650000   
H      0.173496246667     0.059661470000     0.120848545000   
H      0.072373886667     0.167242840000     0.137414115000   
H      0.066089033333     0.229821325000     0.134381560000   
H      0.093104113333     0.228485270000     0.101879560000   
H      0.130670616667     0.221361580000     0.132716375000   
H      0.217824666667     0.206345600000     0.247845365000   
H      0.288911766667     0.182966550000     0.274397880000   
H      0.277821166667     0.154755430000     0.318681600000   
H      0.194892000000     0.148582900000     0.335976550000   
H      0.123183240000     0.170513230000     0.309381200000   
H      0.328382766667     0.228083120000     0.284987720000   
H      0.256725886667     0.250117900000     0.258180320000   
H      0.266569633333     0.275947750000     0.213025435000   
H      0.015694636667     0.281808375000     0.195141820000   
H      0.088227733333     0.262305320000     0.222222910000   
H      0.106357300000     0.478402585000     0.340745150000   
H      0.053100963333     0.464035950000     0.299720300000   
H      0.299727676667     0.446941585000     0.304282150000   
H      0.265690600000     0.445240300000     0.350009400000   
H      0.318124800000     0.460458600000     0.391197620000   
H      0.124693026667     0.403670600000     0.457233500000   
H      0.181119043333     0.357042150000     0.474907370000   
H      0.268677333333     0.358939100000     0.464600350000   
H      0.300286566667     0.408274050000     0.437187670000   
H      0.244600033333     0.455652120000     0.419967920000   
H      0.090048780000     0.096887575000     0.030171575000   
H      0.030649750000     0.108916870000     0.065590200000   
H      0.277703086667     0.122183450000     0.052425265000   
H      0.250314700000     0.122367350000     0.003647325000   
H      0.308962533333     0.109449595000     0.467987800000   
H      0.121179213333     0.172419400000     0.416198450000   
H      0.177459533333     0.221316100000     0.404149150000   
H      0.262956123333     0.222836360000     0.423022180000   
H      0.292764400000     0.174675880000     0.453430600000   
H      0.237312713333     0.125065200000     0.465104750000   
H      0.120419193333     0.475306350000     0.327726335000   
H      0.075456046667     0.322835685000     0.287660600000   
H      0.022683960000     0.275695235000     0.264444620000   
H      0.266474900000     0.284185530000     0.260000825000   
H      0.229808733333     0.340749700000     0.277934370000   
H      0.282031376667     0.388262550000     0.301007030000   
H      0.264966290000     0.043930410000     0.228173650000   
H      0.317249633333     0.091401460000     0.251248800000   
H      0.280659733333     0.147994460000     0.269182600000   
H      0.191127333333     0.156556070000     0.264735050000   
H      0.138296643333     0.109451530000     0.241522700000   
H      0.317069566667     0.443260550000     0.261128800000   
H      0.288701900000     0.433556850000     0.212932080000   
H      0.332757766667     0.391300800000     0.182699300000   
H      0.072119663333     0.358624370000     0.200729150000   
H      0.101079186667     0.368195115000     0.248824640000   
H      0.112509023333     0.064143775000     0.280332265000   
H      0.141269800000     0.073620320000     0.328472200000   
H      0.213821333333     0.040847780000     0.346574600000   
H      0.257961890000     0.498613330000     0.316369475000   
H      0.229802466667     0.488999900000     0.268133650000   
H      0.148497680000     0.453707850000     0.124718020000   
H      0.151680766667     0.485241770000     0.393485700000   
H      0.093142260000     0.456981300000     0.201526060000   
C      0.186232943333     0.361879530000     0.398713975000   
C      0.031799410000     0.230152200000     0.484650900000   
C      0.160713366667     0.348166650000     0.420937120000   
C      0.050553400000     0.263060870000     0.475202450000   
C      0.116579673333     0.328920450000     0.415575625000   
C      0.100264916667     0.265306400000     0.469268250000   
C      0.092398673333     0.333747120000     0.390096650000   
C      0.131544133333     0.238118900000     0.479308250000   
C      0.112365513333     0.358180000000     0.371116370000   
C      0.112530826667     0.209969685000     0.495610650000   
C      0.043056330000     0.314411300000     0.384987150000   
C      0.050083980000     0.274366700000     0.376692350000   
C      0.001093736667     0.254879050000     0.371577600000   
C      0.185636766667     0.241548850000     0.473290680000   
C      0.194613466667     0.230980115000     0.443413700000   
C      0.249034133333     0.231036560000     0.438251450000   
C      0.075804780000     0.374744175000     0.350899750000   
C      0.061991896667     0.349708950000     0.325769215000   
C      0.019714263333     0.365565420000     0.308816950000   
C      0.149037633333     0.185086265000     0.009901045000   
C      0.169378200000     0.156072260000     0.490410950000   
C      0.200490000000     0.128576280000     0.005803110000   
C      0.209143956667     0.361146180000     0.362190450000   
C      0.011265753333     0.378622920000     0.338633550000   
C      0.256706656667     0.367330580000     0.353864200000   
C      0.297065700000     0.372419850000     0.346995385000   
C      0.104448923333     0.394297630000     0.045405945000   
C      0.111718753333     0.391045350000     0.156989215000   
C      0.279574613333     0.438030950000     0.049978735000   
C      0.286005516667     0.416698950000     0.141054465000   
C      0.328115046667     0.437074550000     0.060348390000   
C      0.109581466667     0.406221650000     0.130036235000   
C      0.241253600000     0.404565125000     0.128804160000   
C      0.012067733333     0.406869150000     0.074261195000   
C      0.198384343333     0.424319200000     0.132733600000   
C      0.314667800000     0.376760700000     0.076648825000   
C      0.199969550000     0.455163450000     0.150224270000   
C      0.266637583333     0.377307000000     0.065900440000   
C      0.244198680000     0.466880050000     0.162882390000   
C      0.248768586667     0.408086950000     0.053161885000   
C      0.287153133333     0.448162900000     0.157940075000   
C      0.064062820000     0.412641375000     0.116737230000   
C      0.104981900000     0.405645450000     0.074319265000   
C      0.149337590000     0.417510000000     0.088351845000   
C      0.260306200000     0.471575675000     0.036811380000   
C      0.285372713333     0.478646350000     0.010437410000   
C      0.332443853333     0.396548780000     0.135837330000   
C      0.032674910000     0.418407900000     0.118621715000   
C      0.022150453333     0.430128870000     0.131818490000   
C      0.021902656667     0.471246550000     0.128136070000   
C      0.314686400000     0.489406350000     0.143698575000   
C      0.189731666667     0.437304650000     0.074013560000   
C      0.170538733333     0.472681135000     0.062187965000   
C      0.152455166667     0.414647000000     0.116809600000   
C      0.208829920000     0.491009770000     0.045678610000   
C      0.061038503333     0.407950280000     0.088363100000   
C      0.224051613333     0.198499950000     0.072077425000   
C      0.055107290000     0.079425695000     0.166157185000   
C      0.195071716667     0.183018750000     0.091178560000   
C      0.089940600000     0.095530080000     0.150597400000   
C      0.146921366667     0.172798975000     0.083814720000   
C      0.079405800000     0.100919635000     0.122925185000   
C      0.128168273333     0.178779365000     0.057144360000   
C      0.033526493333     0.089861600000     0.111125290000   
C      0.158723900000     0.194870785000     0.038525120000   
C      0.332667846667     0.073841655000     0.127746910000   
C      0.116516633333     0.155574560000     0.104259430000   
C      0.116618100000     0.118738225000     0.106558050000   
C      0.157246033333     0.059698375000     0.099720950000   
C      0.094322056667     0.216356800000     0.122242510000   
C      0.308948533333     0.028285540000     0.204491735000   
C      0.235454900000     0.094383390000     0.156267240000   
C      0.283153316667     0.051484950000     0.187565625000   
C      0.261256866667     0.071177930000     0.173197790000   
C      0.098238726667     0.171025290000     0.182072775000   
C      0.115354733333     0.263909070000     0.350007685000   
C      0.105621346667     0.252249630000     0.322413920000   
C      0.107684353333     0.182301910000     0.209737570000   
C      0.090267300000     0.229006710000     0.271427750000   
C      0.122376850000     0.205086450000     0.260828200000   
C      0.115189760000     0.192087665000     0.233043360000   
C      0.097779543333     0.242187260000     0.299177885000   
C      0.165218483333     0.190910175000     0.276880325000   
C      0.212318733333     0.193684430000     0.267009950000   
C      0.252713920000     0.180588035000     0.282037885000   
C      0.246486146667     0.164626730000     0.306991900000   
C      0.199750920000     0.161189950000     0.316757680000   
C      0.159216966667     0.173912915000     0.301693800000   
C      0.047063286667     0.242788750000     0.255399450000   
C      0.000136473333     0.240015075000     0.265506685000   
C      0.292696753333     0.252174850000     0.250301000000   
C      0.298252283333     0.266948400000     0.224872250000   
C      0.011408860000     0.270319285000     0.214823000000   
C      0.052397410000     0.258859900000     0.230147660000   
C      0.016920566667     0.200535820000     0.026511140000   
C      0.257990300000     0.211342275000     0.019840255000   
C      0.300330220000     0.206363950000     0.022916585000   
C      0.208066243333     0.217167150000     0.016243525000   
C      0.104318340000     0.159349485000     0.482658200000   
C      0.143141350000     0.082328675000     0.436666100000   
C      0.079595180000     0.011832385000     0.406844600000   
C      0.145102466667     0.494557380000     0.438798850000   
C      0.116818476667     0.416156200000     0.389505180000   
C      0.074433873333     0.062332115000     0.461942525000   
C      0.141412000000     0.116593500000     0.449411550000   
C      0.081357673333     0.477961800000     0.393493850000   
C      0.146836053333     0.460283130000     0.426068300000   
C      0.072670300000     0.096189945000     0.475312770000   
C      0.106155106667     0.123623730000     0.468967100000   
C      0.114982233333     0.451888325000     0.403186530000   
C      0.109647000000     0.055518475000     0.442860125000   
C      0.111482243333     0.020010875000     0.429259030000   
C      0.175441343333     0.145098250000     0.441294850000   
C      0.158709486667     0.172499580000     0.424156800000   
C      0.190384700000     0.200287475000     0.417431830000   
C      0.238635966667     0.201113565000     0.428036185000   
C      0.255462166667     0.173910470000     0.445132165000   
C      0.224077966667     0.145822465000     0.451639475000   
C      0.049173210000     0.470788900000     0.368850530000   
C      0.068295776667     0.471592100000     0.342916100000   
C      0.038332110000     0.463287175000     0.319692900000   
C      0.322732450000     0.453707575000     0.322261500000   
C      0.303521266667     0.452828400000     0.348042725000   
C      0.333208866667     0.461557030000     0.371301450000   
C      0.180793533333     0.433150680000     0.437577220000   
C      0.163059343333     0.405093075000     0.453034450000   
C      0.194832500000     0.378581525000     0.462925800000   
C      0.244238633333     0.379683800000     0.457154275000   
C      0.262075266667     0.407548300000     0.441747220000   
C      0.230540300000     0.434373400000     0.432102700000   
C      0.036892363333     0.101975750000     0.496581675000   
C      0.052234193333     0.102021740000     0.024226310000   
C      0.018780156667     0.109008775000     0.044292865000   
C      0.303426733333     0.116427550000     0.036868690000   
C      0.287971813333     0.116453355000     0.009367345000   
C      0.321172333333     0.109030835000     0.489240700000   
C      0.061801810000     0.412492900000     0.287190400000   
C      0.124297733333     0.488451600000     0.234553175000   
C      0.089299800000     0.443854950000     0.294656575000   
C      0.112455426667     0.481986100000     0.207167240000   
C      0.101149166667     0.450300650000     0.322049050000   
C      0.126203090000     0.005722700000     0.187002400000   
C      0.087429933333     0.426543450000     0.342176615000   
C      0.015501820000     0.357771400000     0.298020850000   
C      0.036246283333     0.326455770000     0.286446750000   
C      0.006531023333     0.299867450000     0.273072570000   
C      0.289409433333     0.304722050000     0.270455630000   
C      0.268712420000     0.336495520000     0.280734050000   
C      0.298308866667     0.363137100000     0.294114830000   
C      0.198200980000     0.074473320000     0.231160450000   
C      0.248716653333     0.069068670000     0.235066115000   
C      0.278350066667     0.095690070000     0.248448415000   
C      0.257694033333     0.127477585000     0.258727700000   
C      0.207249733333     0.132371070000     0.256111115000   
C      0.177503190000     0.105802415000     0.242736850000   
C      0.044183830000     0.406196685000     0.258400680000   
C      0.003122893333     0.424684880000     0.248083370000   
C      0.320363633333     0.419251470000     0.220842100000   
C      0.011865810000     0.395418850000     0.203796750000   
C      0.052842443333     0.376988300000     0.213964015000   
C      0.069076770000     0.382371550000     0.241184235000   
C      0.169397553333     0.026117145000     0.270804300000   
C      0.144467680000     0.049939035000     0.288004850000   
C      0.160588253333     0.055270135000     0.315248070000   
C      0.201485333333     0.036782800000     0.325456950000   
C      0.226365090000     0.012963355000     0.308428050000   
C      0.210393746667     0.007584035000     0.281162920000   
C      0.166139206667     0.043757615000     0.221502170000   
C      0.047523940000     0.388507600000     0.307681800000   
C      0.151821860000     0.019800365000     0.242007630000   
S      0.306711200000     0.216545835000     0.470138450000   
S      0.251543900000     0.362835500000     0.404177800000   
S      0.014832773333     0.302887230000     0.478465950000   
S      0.178019833333     0.362757100000     0.455040125000   
S      0.111446786667     0.488457350000     0.153206020000   
S      0.102416723333     0.443774225000     0.375910135000   
N      0.161174616667     0.370036700000     0.374160650000   
N      0.062188206667     0.205984665000     0.498158425000   
N      0.094253133333     0.304957120000     0.434414100000   
N      0.121071426667     0.293540050000     0.453526250000   
N      0.205922823333     0.204084000000     0.046348530000   
N      0.011010806667     0.068768130000     0.154650400000   
N      0.286262453333     0.061876170000     0.116311370000   
N      0.139492023333     0.203038650000     0.011913040000   
N      0.149473846667     0.096560770000     0.091428375000   
N      0.084244433333     0.177800850000     0.119761735000   
N      0.079186186667     0.167855010000     0.048704880000   
N      0.021757756667     0.094546395000     0.082665650000   
N      0.153362940000     0.037083985000     0.193977015000   
N      0.060311810000     0.395163925000     0.335206900000   
N      0.112264543333     0.460678550000     0.252987450000   
N      0.101330160000     0.471636150000     0.276228000000   
O      0.270313900000     0.212549580000     0.491701425000   
O      0.287528633333     0.243713930000     0.450301470000   
O      0.312547366667     0.177077530000     0.452537715000   
O      0.267216166667     0.396881730000     0.419858050000   
O      0.266209000000     0.331009300000     0.420894325000   
O      0.283218900000     0.360005470000     0.376053200000   
O      0.330831446667     0.315432875000     0.451002775000   
O      0.304383966667     0.295745430000     0.494792800000   
O      0.048262720000     0.336017670000     0.494595530000   
O      0.214502366667     0.337115170000     0.467340750000   
O      0.199811000000     0.400201950000     0.455551030000   
O      0.128851940000     0.364508330000     0.474040950000   
O      0.203595800000     0.336807280000     0.380348325000   
O      0.016769010000     0.402809085000     0.320345225000   
O      0.046701273333     0.359259550000     0.349079430000   
O      0.173663556667     0.380356820000     0.351614100000   
O      0.144822906667     0.391285030000     0.033767720000   
O      0.072293306667     0.379722265000     0.166769775000   
O      0.064073243333     0.387457700000     0.031912875000   
O      0.153043000000     0.383549570000     0.168624600000   
O      0.282862833333     0.031168905000     0.102592355000   
O      0.250504016667     0.084770560000     0.114450950000   
O      0.100978453333     0.223226025000     0.009082470000   
O      0.156976566667     0.187217310000     0.490549900000   
O      0.070623006667     0.149924530000     0.025724990000   
O      0.042710050000     0.177029950000     0.063349030000   
O      0.313418846667     0.108240330000     0.074713090000   
O      0.052072213333     0.084191075000     0.064476130000   
O      0.285056053333     0.005887960000     0.218022020000   
O      0.259347366667     0.116780975000     0.142736940000   
O      0.188901033333     0.092366750000     0.154927760000   
O      0.022169033333     0.030302180000     0.205831230000   
O      0.131304710000     0.152653010000     0.170052590000   
O      0.082368576667     0.282401500000     0.362014600000   
O      0.057002066667     0.179195540000     0.169942200000   
O      0.156671216667     0.255859000000     0.362125000000   
O      0.045568466667     0.218187870000     0.011289665000   
O      0.031310120000     0.177889260000     0.044825030000   
O      0.193684776667     0.239810650000     0.497917350000   
O      0.179421233333     0.199497300000     0.031464985000   
O      0.144594976667     0.175510375000     0.490561300000   
O      0.076541623333     0.399993200000     0.381605350000   
O      0.158670723333     0.401663800000     0.385666250000   
O      0.062465880000     0.173839750000     0.486500400000   
O      0.069218933333     0.462306400000     0.153624800000   
O      0.097569346667     0.016861615000     0.133326950000   
O      0.159896990000     0.465396350000     0.142328665000   
O      0.059301053333     0.464367900000     0.385904430000   
O      0.116740766667     0.415396870000     0.395722030000   
O      0.149720786667     0.472977150000     0.375242850000   
F      0.176707090000     0.075249970000     0.417773950000   
F      0.047585866667     0.037170930000     0.397690500000   
F      0.175374150000     0.002934550000     0.460861750000   
F      0.042601383333     0.035696550000     0.467916130000   
Zn     0.134321780000     0.085275920000     0.663212240000   
Zn     0.073110223333     0.036131535000     0.696521450000   
Cu     0.161319783333     0.209583100000     0.523929905000   
Cu     0.060632606667     0.207324625000     0.519156590000   
Cu     0.159008313333     0.372567350000     0.853000375000   
Cu     0.059502890000     0.367586730000     0.847184800000   
H      0.279921766667     0.172182290000     0.943581750000   
H      0.317904453333     0.362625450000     0.882477015000   
H      0.057756696667     0.326338680000     0.512607335000   
H      0.141921360000     0.370614170000     0.992767780000   
H      0.313383966667     0.255992550000     0.890318650000   
H      0.312859953333     0.267582475000     0.854795550000   
H      0.007350863333     0.226036580000     0.865729330000   
H      0.070943723333     0.272213100000     0.857917800000   
H      0.071265460000     0.260380150000     0.892995300000   
H      0.022072463333     0.316258670000     0.903611125000   
H      0.018176120000     0.327201275000     0.869961750000   
H      0.265128910000     0.258309000000     0.943111300000   
H      0.268269833333     0.210745035000     0.950931450000   
H      0.254306953333     0.223977060000     0.916497530000   
H      0.179216433333     0.203608530000     0.938139470000   
H      0.176393066667     0.250226450000     0.929460615000   
H      0.198019366667     0.269888950000     0.977730650000   
H      0.210124900000     0.225677090000     0.986648830000   
H      0.319758016667     0.366821080000     0.820798665000   
H      0.029014230000     0.393293830000     0.802593600000   
H      0.011768826667     0.348118275000     0.790283650000   
H      0.093341073333     0.344989270000     0.812886250000   
H      0.051069280000     0.322277050000     0.831415650000   
H      0.042307596667     0.381739170000     0.861716450000   
H      0.087015000000     0.401826920000     0.844901850000   
H      0.232994100000     0.142231050000     0.515996815000   
H      0.179145266667     0.115438230000     0.521386445000   
H      0.213027120000     0.107300365000     0.991301500000   
H      0.138807233333     0.142055110000     0.978844435000   
H      0.192492433333     0.168154120000     0.975303770000   
H      0.179046610000     0.201255470000     0.520360350000   
H      0.133954966667     0.171471925000     0.526871680000   
H      0.210955380000     0.408463420000     0.545761105000   
H      0.245365000000     0.490957350000     0.676082450000   
H      0.324349366667     0.485644130000     0.514733140000   
H      0.283240233333     0.454649100000     0.996417730000   
H      0.267028986667     0.001211820000     0.999895800000   
H      0.220291233333     0.469257830000     0.532276570000   
H      0.266582000000     0.495042500000     0.551305275000   
H      0.321394166667     0.458323550000     0.667120665000   
H      0.014129640000     0.423964000000     0.598631730000   
H      0.043475110000     0.444453450000     0.629246710000   
H      0.066236100000     0.402685285000     0.615079125000   
H      0.018483720000     0.390711070000     0.655508350000   
H      0.324249743333     0.370095500000     0.625057830000   
H      0.278504666667     0.478139700000     0.636465965000   
H      0.320386946667     0.485157500000     0.665855050000   
H      0.315073733333     0.018990695000     0.640350625000   
H      0.057608340000     0.483011800000     0.635812200000   
H      0.016659273333     0.477452950000     0.606331200000   
H      0.319817683333     0.417947680000     0.624698200000   
H      0.025097583333     0.426556250000     0.653996950000   
H      0.219489733333     0.472797575000     0.528576605000   
H      0.193603433333     0.016256390000     0.537171595000   
H      0.241780766667     0.498089375000     0.558858925000   
H      0.137166193333     0.467425250000     0.549076650000   
H      0.160558273333     0.491493950000     0.579118340000   
H      0.220995586667     0.445377500000     0.587980420000   
H      0.206714750000     0.419779420000     0.558514140000   
H      0.018599813333     0.460304900000     0.558497360000   
H      0.239950020000     0.380764500000     0.615273880000   
H      0.327659300000     0.353260575000     0.587330930000   
H      0.167186616667     0.470631720000     0.653456760000   
H      0.242927366667     0.354118800000     0.567928440000   
H      0.261234366667     0.206429350000     0.577893225000   
H      0.063314253333     0.075360360000     0.687547625000   
H      0.124861366667     0.103915550000     0.660070000000   
H      0.210166653333     0.178786800000     0.611565850000   
H      0.180786633333     0.108949200000     0.585466815000   
H      0.182696423333     0.045942635000     0.585915780000   
H      0.122338423333     0.044184280000     0.598387650000   
H      0.173496246667     0.059661470000     0.620848545000   
H      0.072373886667     0.167242840000     0.637414115000   
H      0.066089033333     0.229821325000     0.634381560000   
H      0.093104113333     0.228485270000     0.601879560000   
H      0.130670616667     0.221361580000     0.632716375000   
H      0.217824666667     0.206345600000     0.747845365000   
H      0.288911766667     0.182966550000     0.774397880000   
H      0.277821166667     0.154755430000     0.818681600000   
H      0.194892000000     0.148582900000     0.835976550000   
H      0.123183240000     0.170513230000     0.809381200000   
H      0.328382766667     0.228083120000     0.784987720000   
H      0.256725886667     0.250117900000     0.758180320000   
H      0.266569633333     0.275947750000     0.713025435000   